
     Program PWSCF v.6.7MaX starts on 24Sep2026 at 12:17:18 

     This program is part of the open-source Quantum ESPRESSO suite
     for quantum simulation of materials; please cite
         "P. Giannozzi et al., J. Phys.:Condens. Matter 21 395502 (2009);
         "P. Giannozzi et al., J. Phys.:Condens. Matter 29 465901 (2017);
          URL http://www.quantum-espresso.org", 
     in publications or presentations arising from this work. More details at
     http://www.quantum-espresso.org/quote

     Parallel version (MPI), running on     1 processors

     MPI processes distributed on     1 nodes
     Waiting for input...
     Reading input from standard input

     Current dimensions of program PWSCF are:
     Max number of different atomic species (ntypx) = 10
     Max number of k-points (npk) =  40000
     Max angular momentum in pseudopotentials (lmaxx) =  3

     Subspace diagonalization in iterative solution of the eigenvalue problem:
     a serial algorithm will be used


     G-vector sticks info
     --------------------
     sticks:   dense  smooth     PW     G-vecs:    dense   smooth      PW
     Sum        1027     511    163                21547     7631    1363



     bravais-lattice index     =            2
     lattice parameter (alat)  =      10.2630  a.u.
     unit-cell volume          =     270.2483 (a.u.)^3
     number of atoms/cell      =            2
     number of atomic types    =            1
     number of electrons       =         8.00
     number of Kohn-Sham states=            4
     kinetic-energy cutoff     =      35.0000  Ry
     charge density cutoff     =     280.0000  Ry
     scf convergence threshold =      1.0E-08
     mixing beta               =       0.7000
     number of iterations used =            8  plain     mixing
     Exchange-correlation= PBE
                           (   1   4   3   4   0   0   0)

     celldm(1)=  10.263000  celldm(2)=   0.000000  celldm(3)=   0.000000
     celldm(4)=   0.000000  celldm(5)=   0.000000  celldm(6)=   0.000000

     crystal axes: (cart. coord. in units of alat)
               a(1) = (  -0.500000   0.000000   0.500000 )  
               a(2) = (   0.000000   0.500000   0.500000 )  
               a(3) = (  -0.500000   0.500000   0.000000 )  

     reciprocal axes: (cart. coord. in units 2 pi/alat)
               b(1) = ( -1.000000 -1.000000  1.000000 )  
               b(2) = (  1.000000  1.000000  1.000000 )  
               b(3) = ( -1.000000  1.000000 -1.000000 )  


     PseudoPot. # 1 for Si read from file:
     /usr/share/espresso/pseudo/Si.pbe-n-rrkjus_psl.1.0.0.UPF
     MD5 check sum: 0b0bb1205258b0d07b9f9672cf965d36
     Pseudo is Ultrasoft + core correction, Zval =  4.0
     Generated using "atomic" code by A. Dal Corso  v.5.1
     Using radial grid of 1141 points,  6 beta functions with: 
                l(1) =   0
                l(2) =   0
                l(3) =   1
                l(4) =   1
                l(5) =   2
                l(6) =   2
     Q(r) pseudized with 0 coefficients 


     atomic species   valence    mass     pseudopotential
        Si             4.00    28.08550     Si( 1.00)

     48 Sym. Ops., with inversion, found (24 have fractional translation)



   Cartesian axes

     site n.     atom                  positions (alat units)
         1           Si  tau(   1) = (   0.0000000   0.0000000   0.0000000  )
         2           Si  tau(   2) = (  -0.2500000   0.2500000   0.2500000  )

     number of k points=     8
                       cart. coord. in units 2pi/alat
        k(    1) = (   0.0000000   0.0000000   0.0000000), wk =   0.0312500
        k(    2) = (  -0.2500000   0.2500000  -0.2500000), wk =   0.2500000
        k(    3) = (   0.5000000  -0.5000000   0.5000000), wk =   0.1250000
        k(    4) = (   0.0000000   0.5000000   0.0000000), wk =   0.1875000
        k(    5) = (   0.7500000  -0.2500000   0.7500000), wk =   0.7500000
        k(    6) = (   0.5000000   0.0000000   0.5000000), wk =   0.3750000
        k(    7) = (   0.0000000  -1.0000000   0.0000000), wk =   0.0937500
        k(    8) = (  -0.5000000  -1.0000000   0.0000000), wk =   0.1875000

     Dense  grid:    21547 G-vectors     FFT dimensions: (  40,  40,  40)

     Smooth grid:     7631 G-vectors     FFT dimensions: (  32,  32,  32)

     Estimated max dynamical RAM per process >      77.44 MB

     Initial potential from superposition of free atoms

     starting charge    7.99888, renormalised to    8.00000
     Starting wfcs are    8 randomized atomic wfcs

     total cpu time spent up to now is        1.0 secs

     Self-consistent Calculation

     iteration #  1     ecut=    35.00 Ry     beta= 0.70
     Davidson diagonalization with overlap
     ethr =  1.00E-02,  avg # of iterations =  2.0

     Threshold (ethr) on eigenvalues was too large:
     Diagonalizing with lowered threshold

     Davidson diagonalization with overlap
     ethr =  6.82E-04,  avg # of iterations =  1.5

     total cpu time spent up to now is        1.8 secs

     total energy              =     -22.82326613 Ry
     estimated scf accuracy    <       0.05931926 Ry

     iteration #  2     ecut=    35.00 Ry     beta= 0.70
     Davidson diagonalization with overlap
     ethr =  7.41E-04,  avg # of iterations =  1.0

     total cpu time spent up to now is        2.2 secs

     total energy              =     -22.82503843 Ry
     estimated scf accuracy    <       0.00324877 Ry

     iteration #  3     ecut=    35.00 Ry     beta= 0.70
     Davidson diagonalization with overlap
     ethr =  4.06E-05,  avg # of iterations =  3.0

     total cpu time spent up to now is        2.7 secs

     total energy              =     -22.82581376 Ry
     estimated scf accuracy    <       0.00012696 Ry

     iteration #  4     ecut=    35.00 Ry     beta= 0.70
     Davidson diagonalization with overlap
     ethr =  1.59E-06,  avg # of iterations =  3.0

     total cpu time spent up to now is        3.3 secs

     total energy              =     -22.82585777 Ry
     estimated scf accuracy    <       0.00003746 Ry

     iteration #  5     ecut=    35.00 Ry     beta= 0.70
     Davidson diagonalization with overlap
     ethr =  4.68E-07,  avg # of iterations =  2.2

     total cpu time spent up to now is        3.8 secs

     total energy              =     -22.82586683 Ry
     estimated scf accuracy    <       0.00000050 Ry

     iteration #  6     ecut=    35.00 Ry     beta= 0.70
     Davidson diagonalization with overlap
     ethr =  6.27E-09,  avg # of iterations =  7.0

     total cpu time spent up to now is        4.5 secs

     total energy              =     -22.82586840 Ry
     estimated scf accuracy    <       0.00000005 Ry

     iteration #  7     ecut=    35.00 Ry     beta= 0.70
     Davidson diagonalization with overlap
     ethr =  5.95E-10,  avg # of iterations =  4.0

     total cpu time spent up to now is        5.0 secs

     total energy              =     -22.82586842 Ry
     estimated scf accuracy    <       0.00000001 Ry

     iteration #  8     ecut=    35.00 Ry     beta= 0.70
     Davidson diagonalization with overlap
     ethr =  1.76E-10,  avg # of iterations =  2.2

     total cpu time spent up to now is        5.6 secs

     End of self-consistent calculation

          k = 0.0000 0.0000 0.0000 (   941 PWs)   bands (ev):

    -5.7252   6.2440   6.2440   6.2440

          k =-0.2500 0.2500-0.2500 (   941 PWs)   bands (ev):

    -4.9253   2.3094   5.4800   5.4800

          k = 0.5000-0.5000 0.5000 (   960 PWs)   bands (ev):

    -3.3919  -0.7366   5.0401   5.0401

          k = 0.0000 0.5000 0.0000 (   950 PWs)   bands (ev):

    -4.6430   2.7242   4.3453   4.3453

          k = 0.7500-0.2500 0.7500 (   948 PWs)   bands (ev):

    -3.0057  -0.1456   2.6986   4.0300

          k = 0.5000 0.0000 0.5000 (   931 PWs)   bands (ev):

    -3.6805   0.7578   2.4789   4.9100

          k = 0.0000-1.0000 0.0000 (   950 PWs)   bands (ev):

    -1.5791  -1.5791   3.3812   3.3812

          k =-0.5000-1.0000 0.0000 (   952 PWs)   bands (ev):

    -1.4143  -1.4143   2.3781   2.3781

     highest occupied level (ev):     6.2440

!    total energy              =     -22.82586842 Ry
     estimated scf accuracy    <          3.6E-09 Ry

     The total energy is the sum of the following terms:
     one-electron contribution =       5.16595476 Ry
     hartree contribution      =       1.12470274 Ry
     xc contribution           =     -12.32050746 Ry
     ewald contribution        =     -16.79601846 Ry

     convergence has been achieved in   8 iterations

     Writing output data file ./tmp/silicon.save/

     init_run     :      0.70s CPU      0.80s WALL (       1 calls)
     electrons    :      3.59s CPU      4.55s WALL (       1 calls)

     Called by init_run:
     wfcinit      :      0.10s CPU      0.10s WALL (       1 calls)
     potinit      :      0.05s CPU      0.06s WALL (       1 calls)
     hinit0       :      0.44s CPU      0.44s WALL (       1 calls)

     Called by electrons:
     c_bands      :      1.35s CPU      1.37s WALL (       9 calls)
     sum_band     :      0.98s CPU      1.51s WALL (       9 calls)
     v_of_rho     :      0.48s CPU      0.51s WALL (       9 calls)
     newd         :      0.85s CPU      1.30s WALL (       9 calls)
     mix_rho      :      0.05s CPU      0.05s WALL (       9 calls)

     Called by c_bands:
     init_us_2    :      0.07s CPU      0.07s WALL (     152 calls)
     cegterg      :      0.97s CPU      0.99s WALL (      72 calls)

     Called by *egterg:
     cdiaghg      :      0.01s CPU      0.01s WALL (     272 calls)
     h_psi        :      0.80s CPU      0.82s WALL (     288 calls)
     s_psi        :      0.11s CPU      0.11s WALL (     288 calls)
     g_psi        :      0.01s CPU      0.01s WALL (     208 calls)

     Called by h_psi:
     h_psi:calbec :      0.10s CPU      0.11s WALL (     288 calls)
     vloc_psi     :      0.58s CPU      0.59s WALL (     288 calls)
     add_vuspsi   :      0.11s CPU      0.11s WALL (     288 calls)

     General routines
     calbec       :      0.13s CPU      0.14s WALL (     360 calls)
     fft          :      0.25s CPU      0.25s WALL (     116 calls)
     ffts         :      0.00s CPU      0.01s WALL (      18 calls)
     fftw         :      0.52s CPU      0.53s WALL (    2238 calls)
     interpolate  :      0.02s CPU      0.02s WALL (       9 calls)

     Parallel routines

     PWSCF        :      4.53s CPU      5.63s WALL


   This run was terminated on:  12:17:24  24Sep2026            

=------------------------------------------------------------------------------=
   JOB DONE.
=------------------------------------------------------------------------------=
