
     Program PWSCF v.6.7MaX starts on 24Sep2026 at 12:36:49 

     This program is part of the open-source Quantum ESPRESSO suite
     for quantum simulation of materials; please cite
         "P. Giannozzi et al., J. Phys.:Condens. Matter 21 395502 (2009);
         "P. Giannozzi et al., J. Phys.:Condens. Matter 29 465901 (2017);
          URL http://www.quantum-espresso.org", 
     in publications or presentations arising from this work. More details at
     http://www.quantum-espresso.org/quote

     Parallel version (MPI), running on     1 processors

     MPI processes distributed on     1 nodes
     Waiting for input...
     Reading input from standard input

     Current dimensions of program PWSCF are:
     Max number of different atomic species (ntypx) = 10
     Max number of k-points (npk) =  40000
     Max angular momentum in pseudopotentials (lmaxx) =  3

     Subspace diagonalization in iterative solution of the eigenvalue problem:
     a serial algorithm will be used


     G-vector sticks info
     --------------------
     sticks:   dense  smooth     PW     G-vecs:    dense   smooth      PW
     Sum        1285     649    199                30923    11017    1837



     bravais-lattice index     =            2
     lattice parameter (alat)  =      10.2630  a.u.
     unit-cell volume          =     270.2483 (a.u.)^3
     number of atoms/cell      =            2
     number of atomic types    =            1
     number of electrons       =         8.00
     number of Kohn-Sham states=            4
     kinetic-energy cutoff     =      45.0000  Ry
     charge density cutoff     =     360.0000  Ry
     scf convergence threshold =      1.0E-08
     mixing beta               =       0.7000
     number of iterations used =            8  plain     mixing
     Exchange-correlation= PBE
                           (   1   4   3   4   0   0   0)

     celldm(1)=  10.263000  celldm(2)=   0.000000  celldm(3)=   0.000000
     celldm(4)=   0.000000  celldm(5)=   0.000000  celldm(6)=   0.000000

     crystal axes: (cart. coord. in units of alat)
               a(1) = (  -0.500000   0.000000   0.500000 )  
               a(2) = (   0.000000   0.500000   0.500000 )  
               a(3) = (  -0.500000   0.500000   0.000000 )  

     reciprocal axes: (cart. coord. in units 2 pi/alat)
               b(1) = ( -1.000000 -1.000000  1.000000 )  
               b(2) = (  1.000000  1.000000  1.000000 )  
               b(3) = ( -1.000000  1.000000 -1.000000 )  


     PseudoPot. # 1 for Si read from file:
     /usr/share/espresso/pseudo/Si.pbe-n-rrkjus_psl.1.0.0.UPF
     MD5 check sum: 0b0bb1205258b0d07b9f9672cf965d36
     Pseudo is Ultrasoft + core correction, Zval =  4.0
     Generated using "atomic" code by A. Dal Corso  v.5.1
     Using radial grid of 1141 points,  6 beta functions with: 
                l(1) =   0
                l(2) =   0
                l(3) =   1
                l(4) =   1
                l(5) =   2
                l(6) =   2
     Q(r) pseudized with 0 coefficients 


     atomic species   valence    mass     pseudopotential
        Si             4.00    28.08550     Si( 1.00)

     48 Sym. Ops., with inversion, found (24 have fractional translation)



   Cartesian axes

     site n.     atom                  positions (alat units)
         1           Si  tau(   1) = (   0.0000000   0.0000000   0.0000000  )
         2           Si  tau(   2) = (  -0.2500000   0.2500000   0.2500000  )

     number of k points=     8
                       cart. coord. in units 2pi/alat
        k(    1) = (   0.0000000   0.0000000   0.0000000), wk =   0.0312500
        k(    2) = (  -0.2500000   0.2500000  -0.2500000), wk =   0.2500000
        k(    3) = (   0.5000000  -0.5000000   0.5000000), wk =   0.1250000
        k(    4) = (   0.0000000   0.5000000   0.0000000), wk =   0.1875000
        k(    5) = (   0.7500000  -0.2500000   0.7500000), wk =   0.7500000
        k(    6) = (   0.5000000   0.0000000   0.5000000), wk =   0.3750000
        k(    7) = (   0.0000000  -1.0000000   0.0000000), wk =   0.0937500
        k(    8) = (  -0.5000000  -1.0000000   0.0000000), wk =   0.1875000

     Dense  grid:    30923 G-vectors     FFT dimensions: (  48,  48,  48)

     Smooth grid:    11017 G-vectors     FFT dimensions: (  32,  32,  32)

     Estimated max dynamical RAM per process >     112.04 MB

     Initial potential from superposition of free atoms

     starting charge    7.99888, renormalised to    8.00000
     Starting wfcs are    8 randomized atomic wfcs

     total cpu time spent up to now is        1.1 secs

     Self-consistent Calculation

     iteration #  1     ecut=    45.00 Ry     beta= 0.70
     Davidson diagonalization with overlap
     ethr =  1.00E-02,  avg # of iterations =  2.0

     Threshold (ethr) on eigenvalues was too large:
     Diagonalizing with lowered threshold

     Davidson diagonalization with overlap
     ethr =  6.85E-04,  avg # of iterations =  1.5

     total cpu time spent up to now is        2.3 secs

     total energy              =     -22.82333802 Ry
     estimated scf accuracy    <       0.05941347 Ry

     iteration #  2     ecut=    45.00 Ry     beta= 0.70
     Davidson diagonalization with overlap
     ethr =  7.43E-04,  avg # of iterations =  1.0

     total cpu time spent up to now is        2.9 secs

     total energy              =     -22.82513048 Ry
     estimated scf accuracy    <       0.00324576 Ry

     iteration #  3     ecut=    45.00 Ry     beta= 0.70
     Davidson diagonalization with overlap
     ethr =  4.06E-05,  avg # of iterations =  2.8

     total cpu time spent up to now is        3.6 secs

     total energy              =     -22.82589657 Ry
     estimated scf accuracy    <       0.00011498 Ry

     iteration #  4     ecut=    45.00 Ry     beta= 0.70
     Davidson diagonalization with overlap
     ethr =  1.44E-06,  avg # of iterations =  3.6

     total cpu time spent up to now is        4.4 secs

     total energy              =     -22.82595836 Ry
     estimated scf accuracy    <       0.00001896 Ry

     iteration #  5     ecut=    45.00 Ry     beta= 0.70
     Davidson diagonalization with overlap
     ethr =  2.37E-07,  avg # of iterations =  2.9

     total cpu time spent up to now is        5.2 secs

     total energy              =     -22.82596609 Ry
     estimated scf accuracy    <       0.00000066 Ry

     iteration #  6     ecut=    45.00 Ry     beta= 0.70
     Davidson diagonalization with overlap
     ethr =  8.26E-09,  avg # of iterations =  5.8

     total cpu time spent up to now is        6.1 secs

     total energy              =     -22.82596664 Ry
     estimated scf accuracy    <       0.00000046 Ry

     iteration #  7     ecut=    45.00 Ry     beta= 0.70
     Davidson diagonalization with overlap
     ethr =  5.79E-09,  avg # of iterations =  2.0

     total cpu time spent up to now is        6.7 secs

     total energy              =     -22.82596671 Ry
     estimated scf accuracy    <       0.00000001 Ry

     iteration #  8     ecut=    45.00 Ry     beta= 0.70
     Davidson diagonalization with overlap
     ethr =  1.37E-10,  avg # of iterations =  4.9

     total cpu time spent up to now is        7.5 secs

     End of self-consistent calculation

          k = 0.0000 0.0000 0.0000 (  1411 PWs)   bands (ev):

    -5.7253   6.2442   6.2442   6.2442

          k =-0.2500 0.2500-0.2500 (  1375 PWs)   bands (ev):

    -4.9253   2.3095   5.4802   5.4802

          k = 0.5000-0.5000 0.5000 (  1380 PWs)   bands (ev):

    -3.3919  -0.7366   5.0403   5.0403

          k = 0.0000 0.5000 0.0000 (  1355 PWs)   bands (ev):

    -4.6430   2.7244   4.3455   4.3455

          k = 0.7500-0.2500 0.7500 (  1374 PWs)   bands (ev):

    -3.0057  -0.1455   2.6988   4.0302

          k = 0.5000 0.0000 0.5000 (  1368 PWs)   bands (ev):

    -3.6805   0.7579   2.4791   4.9102

          k = 0.0000-1.0000 0.0000 (  1362 PWs)   bands (ev):

    -1.5790  -1.5790   3.3814   3.3814

          k =-0.5000-1.0000 0.0000 (  1384 PWs)   bands (ev):

    -1.4143  -1.4143   2.3782   2.3782

     highest occupied level (ev):     6.2442

!    total energy              =     -22.82596671 Ry
     estimated scf accuracy    <          1.2E-09 Ry

     The total energy is the sum of the following terms:
     one-electron contribution =       5.16594331 Ry
     hartree contribution      =       1.12464018 Ry
     xc contribution           =     -12.32053175 Ry
     ewald contribution        =     -16.79601846 Ry

     convergence has been achieved in   8 iterations

     Writing output data file ./tmp/silicon.save/

     init_run     :      0.88s CPU      1.00s WALL (       1 calls)
     electrons    :      5.01s CPU      6.40s WALL (       1 calls)

     Called by init_run:
     wfcinit      :      0.13s CPU      0.13s WALL (       1 calls)
     potinit      :      0.10s CPU      0.11s WALL (       1 calls)
     hinit0       :      0.47s CPU      0.47s WALL (       1 calls)

     Called by electrons:
     c_bands      :      1.95s CPU      1.97s WALL (       9 calls)
     sum_band     :      1.35s CPU      2.10s WALL (       9 calls)
     v_of_rho     :      0.65s CPU      0.70s WALL (       9 calls)
     newd         :      1.19s CPU      1.83s WALL (       9 calls)
     mix_rho      :      0.05s CPU      0.06s WALL (       9 calls)

     Called by c_bands:
     init_us_2    :      0.11s CPU      0.11s WALL (     152 calls)
     cegterg      :      1.36s CPU      1.37s WALL (      72 calls)

     Called by *egterg:
     cdiaghg      :      0.02s CPU      0.02s WALL (     275 calls)
     h_psi        :      1.07s CPU      1.08s WALL (     291 calls)
     s_psi        :      0.17s CPU      0.17s WALL (     291 calls)
     g_psi        :      0.02s CPU      0.02s WALL (     211 calls)

     Called by h_psi:
     h_psi:calbec :      0.17s CPU      0.18s WALL (     291 calls)
     vloc_psi     :      0.71s CPU      0.72s WALL (     291 calls)
     add_vuspsi   :      0.17s CPU      0.17s WALL (     291 calls)

     General routines
     calbec       :      0.22s CPU      0.22s WALL (     363 calls)
     fft          :      0.25s CPU      0.25s WALL (     116 calls)
     ffts         :      0.01s CPU      0.01s WALL (      18 calls)
     fftw         :      0.64s CPU      0.65s WALL (    2206 calls)
     interpolate  :      0.03s CPU      0.03s WALL (       9 calls)

     Parallel routines

     PWSCF        :      6.04s CPU      7.59s WALL


   This run was terminated on:  12:36:57  24Sep2026            

=------------------------------------------------------------------------------=
   JOB DONE.
=------------------------------------------------------------------------------=
