
     Program PWSCF v.6.7MaX starts on 24Sep2026 at 12:31:29 

     This program is part of the open-source Quantum ESPRESSO suite
     for quantum simulation of materials; please cite
         "P. Giannozzi et al., J. Phys.:Condens. Matter 21 395502 (2009);
         "P. Giannozzi et al., J. Phys.:Condens. Matter 29 465901 (2017);
          URL http://www.quantum-espresso.org", 
     in publications or presentations arising from this work. More details at
     http://www.quantum-espresso.org/quote

     Parallel version (MPI), running on     1 processors

     MPI processes distributed on     1 nodes
     Waiting for input...
     Reading input from standard input

     Current dimensions of program PWSCF are:
     Max number of different atomic species (ntypx) = 10
     Max number of k-points (npk) =  40000
     Max angular momentum in pseudopotentials (lmaxx) =  3

     Subspace diagonalization in iterative solution of the eigenvalue problem:
     a serial algorithm will be used


     G-vector sticks info
     --------------------
     sticks:   dense  smooth     PW     G-vecs:    dense   smooth      PW
     Sum        1159     583    187                26229     9257    1591



     bravais-lattice index     =            2
     lattice parameter (alat)  =      10.2630  a.u.
     unit-cell volume          =     270.2483 (a.u.)^3
     number of atoms/cell      =            2
     number of atomic types    =            1
     number of electrons       =         8.00
     number of Kohn-Sham states=            4
     kinetic-energy cutoff     =      40.0000  Ry
     charge density cutoff     =     320.0000  Ry
     scf convergence threshold =      1.0E-08
     mixing beta               =       0.7000
     number of iterations used =            8  plain     mixing
     Exchange-correlation= PBE
                           (   1   4   3   4   0   0   0)

     celldm(1)=  10.263000  celldm(2)=   0.000000  celldm(3)=   0.000000
     celldm(4)=   0.000000  celldm(5)=   0.000000  celldm(6)=   0.000000

     crystal axes: (cart. coord. in units of alat)
               a(1) = (  -0.500000   0.000000   0.500000 )  
               a(2) = (   0.000000   0.500000   0.500000 )  
               a(3) = (  -0.500000   0.500000   0.000000 )  

     reciprocal axes: (cart. coord. in units 2 pi/alat)
               b(1) = ( -1.000000 -1.000000  1.000000 )  
               b(2) = (  1.000000  1.000000  1.000000 )  
               b(3) = ( -1.000000  1.000000 -1.000000 )  


     PseudoPot. # 1 for Si read from file:
     /usr/share/espresso/pseudo/Si.pbe-n-rrkjus_psl.1.0.0.UPF
     MD5 check sum: 0b0bb1205258b0d07b9f9672cf965d36
     Pseudo is Ultrasoft + core correction, Zval =  4.0
     Generated using "atomic" code by A. Dal Corso  v.5.1
     Using radial grid of 1141 points,  6 beta functions with: 
                l(1) =   0
                l(2) =   0
                l(3) =   1
                l(4) =   1
                l(5) =   2
                l(6) =   2
     Q(r) pseudized with 0 coefficients 


     atomic species   valence    mass     pseudopotential
        Si             4.00    28.08550     Si( 1.00)

     48 Sym. Ops., with inversion, found (24 have fractional translation)



   Cartesian axes

     site n.     atom                  positions (alat units)
         1           Si  tau(   1) = (   0.0000000   0.0000000   0.0000000  )
         2           Si  tau(   2) = (  -0.2500000   0.2500000   0.2500000  )

     number of k points=     8
                       cart. coord. in units 2pi/alat
        k(    1) = (   0.0000000   0.0000000   0.0000000), wk =   0.0312500
        k(    2) = (  -0.2500000   0.2500000  -0.2500000), wk =   0.2500000
        k(    3) = (   0.5000000  -0.5000000   0.5000000), wk =   0.1250000
        k(    4) = (   0.0000000   0.5000000   0.0000000), wk =   0.1875000
        k(    5) = (   0.7500000  -0.2500000   0.7500000), wk =   0.7500000
        k(    6) = (   0.5000000   0.0000000   0.5000000), wk =   0.3750000
        k(    7) = (   0.0000000  -1.0000000   0.0000000), wk =   0.0937500
        k(    8) = (  -0.5000000  -1.0000000   0.0000000), wk =   0.1875000

     Dense  grid:    26229 G-vectors     FFT dimensions: (  48,  48,  48)

     Smooth grid:     9257 G-vectors     FFT dimensions: (  32,  32,  32)

     Estimated max dynamical RAM per process >      96.32 MB

     Initial potential from superposition of free atoms

     starting charge    7.99888, renormalised to    8.00000
     Starting wfcs are    8 randomized atomic wfcs

     total cpu time spent up to now is        1.2 secs

     Self-consistent Calculation

     iteration #  1     ecut=    40.00 Ry     beta= 0.70
     Davidson diagonalization with overlap
     ethr =  1.00E-02,  avg # of iterations =  2.0

     Threshold (ethr) on eigenvalues was too large:
     Diagonalizing with lowered threshold

     Davidson diagonalization with overlap
     ethr =  6.85E-04,  avg # of iterations =  1.5

     total cpu time spent up to now is        2.2 secs

     total energy              =     -22.82322412 Ry
     estimated scf accuracy    <       0.05956575 Ry

     iteration #  2     ecut=    40.00 Ry     beta= 0.70
     Davidson diagonalization with overlap
     ethr =  7.45E-04,  avg # of iterations =  1.0

     total cpu time spent up to now is        2.9 secs

     total energy              =     -22.82516008 Ry
     estimated scf accuracy    <       0.00314397 Ry

     iteration #  3     ecut=    40.00 Ry     beta= 0.70
     Davidson diagonalization with overlap
     ethr =  3.93E-05,  avg # of iterations =  2.8

     total cpu time spent up to now is        3.5 secs

     total energy              =     -22.82584702 Ry
     estimated scf accuracy    <       0.00009967 Ry

     iteration #  4     ecut=    40.00 Ry     beta= 0.70
     Davidson diagonalization with overlap
     ethr =  1.25E-06,  avg # of iterations =  3.8

     total cpu time spent up to now is        4.3 secs

     total energy              =     -22.82590999 Ry
     estimated scf accuracy    <       0.00000812 Ry

     iteration #  5     ecut=    40.00 Ry     beta= 0.70
     Davidson diagonalization with overlap
     ethr =  1.02E-07,  avg # of iterations =  4.2

     total cpu time spent up to now is        5.0 secs

     total energy              =     -22.82591490 Ry
     estimated scf accuracy    <       0.00000064 Ry

     iteration #  6     ecut=    40.00 Ry     beta= 0.70
     Davidson diagonalization with overlap
     ethr =  7.98E-09,  avg # of iterations =  3.1

     total cpu time spent up to now is        5.7 secs

     total energy              =     -22.82591524 Ry
     estimated scf accuracy    <       0.00000017 Ry

     iteration #  7     ecut=    40.00 Ry     beta= 0.70
     Davidson diagonalization with overlap
     ethr =  2.10E-09,  avg # of iterations =  2.6

     total cpu time spent up to now is        6.3 secs

     End of self-consistent calculation

          k = 0.0000 0.0000 0.0000 (  1139 PWs)   bands (ev):

    -5.7252   6.2443   6.2443   6.2443

          k =-0.2500 0.2500-0.2500 (  1164 PWs)   bands (ev):

    -4.9252   2.3096   5.4803   5.4803

          k = 0.5000-0.5000 0.5000 (  1158 PWs)   bands (ev):

    -3.3917  -0.7365   5.0404   5.0404

          k = 0.0000 0.5000 0.0000 (  1174 PWs)   bands (ev):

    -4.6429   2.7245   4.3456   4.3456

          k = 0.7500-0.2500 0.7500 (  1156 PWs)   bands (ev):

    -3.0056  -0.1454   2.6988   4.0302

          k = 0.5000 0.0000 0.5000 (  1159 PWs)   bands (ev):

    -3.6804   0.7581   2.4791   4.9103

          k = 0.0000-1.0000 0.0000 (  1162 PWs)   bands (ev):

    -1.5789  -1.5789   3.3815   3.3815

          k =-0.5000-1.0000 0.0000 (  1144 PWs)   bands (ev):

    -1.4141  -1.4141   2.3783   2.3783

     highest occupied level (ev):     6.2443

!    total energy              =     -22.82591527 Ry
     estimated scf accuracy    <          1.4E-09 Ry

     The total energy is the sum of the following terms:
     one-electron contribution =       5.16595695 Ry
     hartree contribution      =       1.12468026 Ry
     xc contribution           =     -12.32053403 Ry
     ewald contribution        =     -16.79601846 Ry

     convergence has been achieved in   7 iterations

     Writing output data file ./tmp/silicon.save/

     init_run     :      0.85s CPU      0.97s WALL (       1 calls)
     electrons    :      4.07s CPU      5.22s WALL (       1 calls)

     Called by init_run:
     wfcinit      :      0.11s CPU      0.11s WALL (       1 calls)
     potinit      :      0.13s CPU      0.15s WALL (       1 calls)
     hinit0       :      0.49s CPU      0.50s WALL (       1 calls)

     Called by electrons:
     c_bands      :      1.57s CPU      1.59s WALL (       8 calls)
     sum_band     :      1.17s CPU      1.76s WALL (       8 calls)
     v_of_rho     :      0.64s CPU      0.70s WALL (       8 calls)
     newd         :      0.82s CPU      1.35s WALL (       8 calls)
     mix_rho      :      0.04s CPU      0.05s WALL (       8 calls)

     Called by c_bands:
     init_us_2    :      0.08s CPU      0.09s WALL (     136 calls)
     cegterg      :      1.10s CPU      1.11s WALL (      64 calls)

     Called by *egterg:
     cdiaghg      :      0.02s CPU      0.02s WALL (     224 calls)
     h_psi        :      0.89s CPU      0.90s WALL (     240 calls)
     s_psi        :      0.13s CPU      0.13s WALL (     240 calls)
     g_psi        :      0.01s CPU      0.01s WALL (     168 calls)

     Called by h_psi:
     h_psi:calbec :      0.13s CPU      0.13s WALL (     240 calls)
     vloc_psi     :      0.62s CPU      0.63s WALL (     240 calls)
     add_vuspsi   :      0.13s CPU      0.14s WALL (     240 calls)

     General routines
     calbec       :      0.16s CPU      0.16s WALL (     304 calls)
     fft          :      0.24s CPU      0.25s WALL (     103 calls)
     ffts         :      0.00s CPU      0.01s WALL (      16 calls)
     fftw         :      0.56s CPU      0.57s WALL (    1900 calls)
     interpolate  :      0.02s CPU      0.02s WALL (       8 calls)

     Parallel routines

     PWSCF        :      5.11s CPU      6.44s WALL


   This run was terminated on:  12:31:35  24Sep2026            

=------------------------------------------------------------------------------=
   JOB DONE.
=------------------------------------------------------------------------------=
