
     Program PWSCF v.6.7MaX starts on 24Sep2026 at 12:47:25 

     This program is part of the open-source Quantum ESPRESSO suite
     for quantum simulation of materials; please cite
         "P. Giannozzi et al., J. Phys.:Condens. Matter 21 395502 (2009);
         "P. Giannozzi et al., J. Phys.:Condens. Matter 29 465901 (2017);
          URL http://www.quantum-espresso.org", 
     in publications or presentations arising from this work. More details at
     http://www.quantum-espresso.org/quote

     Parallel version (MPI), running on     1 processors

     MPI processes distributed on     1 nodes
     Waiting for input...
     Reading input from standard input

     Current dimensions of program PWSCF are:
     Max number of different atomic species (ntypx) = 10
     Max number of k-points (npk) =  40000
     Max angular momentum in pseudopotentials (lmaxx) =  3

     Subspace diagonalization in iterative solution of the eigenvalue problem:
     a serial algorithm will be used


     G-vector sticks info
     --------------------
     sticks:   dense  smooth     PW     G-vecs:    dense   smooth      PW
     Sum        1459     733    211                36613    12939    2109



     bravais-lattice index     =            2
     lattice parameter (alat)  =      10.2630  a.u.
     unit-cell volume          =     270.2483 (a.u.)^3
     number of atoms/cell      =            2
     number of atomic types    =            1
     number of electrons       =         8.00
     number of Kohn-Sham states=            4
     kinetic-energy cutoff     =      50.0000  Ry
     charge density cutoff     =     400.0000  Ry
     scf convergence threshold =      1.0E-08
     mixing beta               =       0.7000
     number of iterations used =            8  plain     mixing
     Exchange-correlation= PBE
                           (   1   4   3   4   0   0   0)

     celldm(1)=  10.263000  celldm(2)=   0.000000  celldm(3)=   0.000000
     celldm(4)=   0.000000  celldm(5)=   0.000000  celldm(6)=   0.000000

     crystal axes: (cart. coord. in units of alat)
               a(1) = (  -0.500000   0.000000   0.500000 )  
               a(2) = (   0.000000   0.500000   0.500000 )  
               a(3) = (  -0.500000   0.500000   0.000000 )  

     reciprocal axes: (cart. coord. in units 2 pi/alat)
               b(1) = ( -1.000000 -1.000000  1.000000 )  
               b(2) = (  1.000000  1.000000  1.000000 )  
               b(3) = ( -1.000000  1.000000 -1.000000 )  


     PseudoPot. # 1 for Si read from file:
     /usr/share/espresso/pseudo/Si.pbe-n-rrkjus_psl.1.0.0.UPF
     MD5 check sum: 0b0bb1205258b0d07b9f9672cf965d36
     Pseudo is Ultrasoft + core correction, Zval =  4.0
     Generated using "atomic" code by A. Dal Corso  v.5.1
     Using radial grid of 1141 points,  6 beta functions with: 
                l(1) =   0
                l(2) =   0
                l(3) =   1
                l(4) =   1
                l(5) =   2
                l(6) =   2
     Q(r) pseudized with 0 coefficients 


     atomic species   valence    mass     pseudopotential
        Si             4.00    28.08550     Si( 1.00)

     48 Sym. Ops., with inversion, found (24 have fractional translation)



   Cartesian axes

     site n.     atom                  positions (alat units)
         1           Si  tau(   1) = (   0.0000000   0.0000000   0.0000000  )
         2           Si  tau(   2) = (  -0.2500000   0.2500000   0.2500000  )

     number of k points=     8
                       cart. coord. in units 2pi/alat
        k(    1) = (   0.0000000   0.0000000   0.0000000), wk =   0.0312500
        k(    2) = (  -0.2500000   0.2500000  -0.2500000), wk =   0.2500000
        k(    3) = (   0.5000000  -0.5000000   0.5000000), wk =   0.1250000
        k(    4) = (   0.0000000   0.5000000   0.0000000), wk =   0.1875000
        k(    5) = (   0.7500000  -0.2500000   0.7500000), wk =   0.7500000
        k(    6) = (   0.5000000   0.0000000   0.5000000), wk =   0.3750000
        k(    7) = (   0.0000000  -1.0000000   0.0000000), wk =   0.0937500
        k(    8) = (  -0.5000000  -1.0000000   0.0000000), wk =   0.1875000

     Dense  grid:    36613 G-vectors     FFT dimensions: (  48,  48,  48)

     Smooth grid:    12939 G-vectors     FFT dimensions: (  36,  36,  36)

     Estimated max dynamical RAM per process >     131.04 MB

     Initial potential from superposition of free atoms

     starting charge    7.99888, renormalised to    8.00000
     Starting wfcs are    8 randomized atomic wfcs

     total cpu time spent up to now is        1.3 secs

     Self-consistent Calculation

     iteration #  1     ecut=    50.00 Ry     beta= 0.70
     Davidson diagonalization with overlap
     ethr =  1.00E-02,  avg # of iterations =  2.0

     Threshold (ethr) on eigenvalues was too large:
     Diagonalizing with lowered threshold

     Davidson diagonalization with overlap
     ethr =  6.78E-04,  avg # of iterations =  1.5

     total cpu time spent up to now is        2.7 secs

     total energy              =     -22.82336073 Ry
     estimated scf accuracy    <       0.05916437 Ry

     iteration #  2     ecut=    50.00 Ry     beta= 0.70
     Davidson diagonalization with overlap
     ethr =  7.40E-04,  avg # of iterations =  1.0

     total cpu time spent up to now is        3.6 secs

     total energy              =     -22.82511650 Ry
     estimated scf accuracy    <       0.00328946 Ry

     iteration #  3     ecut=    50.00 Ry     beta= 0.70
     Davidson diagonalization with overlap
     ethr =  4.11E-05,  avg # of iterations =  2.8

     total cpu time spent up to now is        4.6 secs

     total energy              =     -22.82593541 Ry
     estimated scf accuracy    <       0.00012883 Ry

     iteration #  4     ecut=    50.00 Ry     beta= 0.70
     Davidson diagonalization with overlap
     ethr =  1.61E-06,  avg # of iterations =  3.9

     total cpu time spent up to now is        5.6 secs

     total energy              =     -22.82599708 Ry
     estimated scf accuracy    <       0.00004006 Ry

     iteration #  5     ecut=    50.00 Ry     beta= 0.70
     Davidson diagonalization with overlap
     ethr =  5.01E-07,  avg # of iterations =  2.2

     total cpu time spent up to now is        6.6 secs

     total energy              =     -22.82600668 Ry
     estimated scf accuracy    <       0.00000052 Ry

     iteration #  6     ecut=    50.00 Ry     beta= 0.70
     Davidson diagonalization with overlap
     ethr =  6.52E-09,  avg # of iterations =  6.4

     total cpu time spent up to now is        7.8 secs

     total energy              =     -22.82600798 Ry
     estimated scf accuracy    <       0.00000026 Ry

     iteration #  7     ecut=    50.00 Ry     beta= 0.70
     Davidson diagonalization with overlap
     ethr =  3.26E-09,  avg # of iterations =  2.1

     total cpu time spent up to now is        8.8 secs

     total energy              =     -22.82600803 Ry
     estimated scf accuracy    <       0.00000002 Ry

     iteration #  8     ecut=    50.00 Ry     beta= 0.70
     Davidson diagonalization with overlap
     ethr =  3.07E-10,  avg # of iterations =  3.8

     total cpu time spent up to now is        9.8 secs

     End of self-consistent calculation

          k = 0.0000 0.0000 0.0000 (  1639 PWs)   bands (ev):

    -5.7254   6.2441   6.2441   6.2441

          k =-0.2500 0.2500-0.2500 (  1618 PWs)   bands (ev):

    -4.9254   2.3094   5.4801   5.4801

          k = 0.5000-0.5000 0.5000 (  1622 PWs)   bands (ev):

    -3.3920  -0.7367   5.0402   5.0402

          k = 0.0000 0.5000 0.0000 (  1612 PWs)   bands (ev):

    -4.6431   2.7242   4.3454   4.3454

          k = 0.7500-0.2500 0.7500 (  1617 PWs)   bands (ev):

    -3.0058  -0.1457   2.6986   4.0300

          k = 0.5000 0.0000 0.5000 (  1604 PWs)   bands (ev):

    -3.6806   0.7578   2.4789   4.9100

          k = 0.0000-1.0000 0.0000 (  1604 PWs)   bands (ev):

    -1.5791  -1.5791   3.3813   3.3813

          k =-0.5000-1.0000 0.0000 (  1628 PWs)   bands (ev):

    -1.4144  -1.4144   2.3781   2.3781

     highest occupied level (ev):     6.2441

!    total energy              =     -22.82600804 Ry
     estimated scf accuracy    <          5.0E-11 Ry

     The total energy is the sum of the following terms:
     one-electron contribution =       5.16591457 Ry
     hartree contribution      =       1.12464510 Ry
     xc contribution           =     -12.32054925 Ry
     ewald contribution        =     -16.79601846 Ry

     convergence has been achieved in   8 iterations

     Writing output data file ./tmp/silicon.save/

     init_run     :      0.94s CPU      1.12s WALL (       1 calls)
     electrons    :      6.66s CPU      8.58s WALL (       1 calls)

     Called by init_run:
     wfcinit      :      0.18s CPU      0.18s WALL (       1 calls)
     potinit      :      0.08s CPU      0.11s WALL (       1 calls)
     hinit0       :      0.46s CPU      0.47s WALL (       1 calls)

     Called by electrons:
     c_bands      :      2.69s CPU      2.73s WALL (       9 calls)
     sum_band     :      1.97s CPU      2.99s WALL (       9 calls)
     v_of_rho     :      0.73s CPU      0.82s WALL (       9 calls)
     newd         :      1.40s CPU      2.29s WALL (       9 calls)
     mix_rho      :      0.06s CPU      0.06s WALL (       9 calls)

     Called by c_bands:
     init_us_2    :      0.13s CPU      0.13s WALL (     152 calls)
     cegterg      :      2.04s CPU      2.08s WALL (      72 calls)

     Called by *egterg:
     cdiaghg      :      0.02s CPU      0.02s WALL (     269 calls)
     h_psi        :      1.77s CPU      1.80s WALL (     285 calls)
     s_psi        :      0.19s CPU      0.19s WALL (     285 calls)
     g_psi        :      0.02s CPU      0.02s WALL (     205 calls)

     Called by h_psi:
     h_psi:calbec :      0.19s CPU      0.19s WALL (     285 calls)
     vloc_psi     :      1.39s CPU      1.42s WALL (     285 calls)
     add_vuspsi   :      0.19s CPU      0.19s WALL (     285 calls)

     General routines
     calbec       :      0.25s CPU      0.25s WALL (     357 calls)
     fft          :      0.28s CPU      0.29s WALL (     116 calls)
     ffts         :      0.03s CPU      0.03s WALL (      18 calls)
     fftw         :      1.41s CPU      1.43s WALL (    2206 calls)
     interpolate  :      0.04s CPU      0.04s WALL (       9 calls)

     Parallel routines

     PWSCF        :      7.75s CPU      9.89s WALL


   This run was terminated on:  12:47:35  24Sep2026            

=------------------------------------------------------------------------------=
   JOB DONE.
=------------------------------------------------------------------------------=
