
     Program PWSCF v.6.7MaX starts on 24Sep2026 at 12:54: 8 

     This program is part of the open-source Quantum ESPRESSO suite
     for quantum simulation of materials; please cite
         "P. Giannozzi et al., J. Phys.:Condens. Matter 21 395502 (2009);
         "P. Giannozzi et al., J. Phys.:Condens. Matter 29 465901 (2017);
          URL http://www.quantum-espresso.org", 
     in publications or presentations arising from this work. More details at
     http://www.quantum-espresso.org/quote

     Parallel version (MPI), running on     1 processors

     MPI processes distributed on     1 nodes
     Waiting for input...
     Reading input from standard input

     Current dimensions of program PWSCF are:
     Max number of different atomic species (ntypx) = 10
     Max number of k-points (npk) =  40000
     Max angular momentum in pseudopotentials (lmaxx) =  3

     Subspace diagonalization in iterative solution of the eigenvalue problem:
     a serial algorithm will be used


     G-vector sticks info
     --------------------
     sticks:   dense  smooth     PW     G-vecs:    dense   smooth      PW
     Sum        1597     805    241                42087    14841    2421



     bravais-lattice index     =            2
     lattice parameter (alat)  =      10.2630  a.u.
     unit-cell volume          =     270.2483 (a.u.)^3
     number of atoms/cell      =            2
     number of atomic types    =            1
     number of electrons       =         8.00
     number of Kohn-Sham states=            4
     kinetic-energy cutoff     =      55.0000  Ry
     charge density cutoff     =     440.0000  Ry
     scf convergence threshold =      1.0E-08
     mixing beta               =       0.7000
     number of iterations used =            8  plain     mixing
     Exchange-correlation= PBE
                           (   1   4   3   4   0   0   0)

     celldm(1)=  10.263000  celldm(2)=   0.000000  celldm(3)=   0.000000
     celldm(4)=   0.000000  celldm(5)=   0.000000  celldm(6)=   0.000000

     crystal axes: (cart. coord. in units of alat)
               a(1) = (  -0.500000   0.000000   0.500000 )  
               a(2) = (   0.000000   0.500000   0.500000 )  
               a(3) = (  -0.500000   0.500000   0.000000 )  

     reciprocal axes: (cart. coord. in units 2 pi/alat)
               b(1) = ( -1.000000 -1.000000  1.000000 )  
               b(2) = (  1.000000  1.000000  1.000000 )  
               b(3) = ( -1.000000  1.000000 -1.000000 )  


     PseudoPot. # 1 for Si read from file:
     /usr/share/espresso/pseudo/Si.pbe-n-rrkjus_psl.1.0.0.UPF
     MD5 check sum: 0b0bb1205258b0d07b9f9672cf965d36
     Pseudo is Ultrasoft + core correction, Zval =  4.0
     Generated using "atomic" code by A. Dal Corso  v.5.1
     Using radial grid of 1141 points,  6 beta functions with: 
                l(1) =   0
                l(2) =   0
                l(3) =   1
                l(4) =   1
                l(5) =   2
                l(6) =   2
     Q(r) pseudized with 0 coefficients 


     atomic species   valence    mass     pseudopotential
        Si             4.00    28.08550     Si( 1.00)

     48 Sym. Ops., with inversion, found (24 have fractional translation)



   Cartesian axes

     site n.     atom                  positions (alat units)
         1           Si  tau(   1) = (   0.0000000   0.0000000   0.0000000  )
         2           Si  tau(   2) = (  -0.2500000   0.2500000   0.2500000  )

     number of k points=     8
                       cart. coord. in units 2pi/alat
        k(    1) = (   0.0000000   0.0000000   0.0000000), wk =   0.0312500
        k(    2) = (  -0.2500000   0.2500000  -0.2500000), wk =   0.2500000
        k(    3) = (   0.5000000  -0.5000000   0.5000000), wk =   0.1250000
        k(    4) = (   0.0000000   0.5000000   0.0000000), wk =   0.1875000
        k(    5) = (   0.7500000  -0.2500000   0.7500000), wk =   0.7500000
        k(    6) = (   0.5000000   0.0000000   0.5000000), wk =   0.3750000
        k(    7) = (   0.0000000  -1.0000000   0.0000000), wk =   0.0937500
        k(    8) = (  -0.5000000  -1.0000000   0.0000000), wk =   0.1875000

     Dense  grid:    42087 G-vectors     FFT dimensions: (  60,  60,  60)

     Smooth grid:    14841 G-vectors     FFT dimensions: (  36,  36,  36)

     Estimated max dynamical RAM per process >     156.58 MB

     Initial potential from superposition of free atoms

     starting charge    7.99888, renormalised to    8.00000
     Starting wfcs are    8 randomized atomic wfcs

     total cpu time spent up to now is        1.5 secs

     Self-consistent Calculation

     iteration #  1     ecut=    55.00 Ry     beta= 0.70
     Davidson diagonalization with overlap
     ethr =  1.00E-02,  avg # of iterations =  2.0

     Threshold (ethr) on eigenvalues was too large:
     Diagonalizing with lowered threshold

     Davidson diagonalization with overlap
     ethr =  6.81E-04,  avg # of iterations =  1.5

     total cpu time spent up to now is        3.5 secs

     total energy              =     -22.82338173 Ry
     estimated scf accuracy    <       0.05927844 Ry

     iteration #  2     ecut=    55.00 Ry     beta= 0.70
     Davidson diagonalization with overlap
     ethr =  7.41E-04,  avg # of iterations =  1.0

     total cpu time spent up to now is        4.6 secs

     total energy              =     -22.82518271 Ry
     estimated scf accuracy    <       0.00324261 Ry

     iteration #  3     ecut=    55.00 Ry     beta= 0.70
     Davidson diagonalization with overlap
     ethr =  4.05E-05,  avg # of iterations =  2.6

     total cpu time spent up to now is        5.9 secs

     total energy              =     -22.82594790 Ry
     estimated scf accuracy    <       0.00011399 Ry

     iteration #  4     ecut=    55.00 Ry     beta= 0.70
     Davidson diagonalization with overlap
     ethr =  1.42E-06,  avg # of iterations =  3.8

     total cpu time spent up to now is        7.2 secs

     total energy              =     -22.82601437 Ry
     estimated scf accuracy    <       0.00001850 Ry

     iteration #  5     ecut=    55.00 Ry     beta= 0.70
     Davidson diagonalization with overlap
     ethr =  2.31E-07,  avg # of iterations =  3.0

     total cpu time spent up to now is        8.4 secs

     total energy              =     -22.82602102 Ry
     estimated scf accuracy    <       0.00000070 Ry

     iteration #  6     ecut=    55.00 Ry     beta= 0.70
     Davidson diagonalization with overlap
     ethr =  8.77E-09,  avg # of iterations =  4.8

     total cpu time spent up to now is        9.6 secs

     total energy              =     -22.82602158 Ry
     estimated scf accuracy    <       0.00000034 Ry

     iteration #  7     ecut=    55.00 Ry     beta= 0.70
     Davidson diagonalization with overlap
     ethr =  4.23E-09,  avg # of iterations =  2.1

     total cpu time spent up to now is       10.8 secs

     End of self-consistent calculation

          k = 0.0000 0.0000 0.0000 (  1837 PWs)   bands (ev):

    -5.7251   6.2444   6.2444   6.2444

          k =-0.2500 0.2500-0.2500 (  1880 PWs)   bands (ev):

    -4.9251   2.3097   5.4804   5.4804

          k = 0.5000-0.5000 0.5000 (  1850 PWs)   bands (ev):

    -3.3916  -0.7364   5.0405   5.0405

          k = 0.0000 0.5000 0.0000 (  1876 PWs)   bands (ev):

    -4.6428   2.7246   4.3457   4.3457

          k = 0.7500-0.2500 0.7500 (  1862 PWs)   bands (ev):

    -3.0055  -0.1453   2.6989   4.0303

          k = 0.5000 0.0000 0.5000 (  1863 PWs)   bands (ev):

    -3.6803   0.7582   2.4792   4.9103

          k = 0.0000-1.0000 0.0000 (  1868 PWs)   bands (ev):

    -1.5788  -1.5788   3.3815   3.3815

          k =-0.5000-1.0000 0.0000 (  1856 PWs)   bands (ev):

    -1.4140  -1.4140   2.3783   2.3783

     highest occupied level (ev):     6.2444

!    total energy              =     -22.82602164 Ry
     estimated scf accuracy    <          9.6E-09 Ry

     The total energy is the sum of the following terms:
     one-electron contribution =       5.16590294 Ry
     hartree contribution      =       1.12465850 Ry
     xc contribution           =     -12.32056462 Ry
     ewald contribution        =     -16.79601846 Ry

     convergence has been achieved in   7 iterations

     Writing output data file ./tmp/silicon.save/

     init_run     :      1.15s CPU      1.39s WALL (       1 calls)
     electrons    :      7.34s CPU      9.30s WALL (       1 calls)

     Called by init_run:
     wfcinit      :      0.15s CPU      0.16s WALL (       1 calls)
     potinit      :      0.22s CPU      0.26s WALL (       1 calls)
     hinit0       :      0.57s CPU      0.57s WALL (       1 calls)

     Called by electrons:
     c_bands      :      2.66s CPU      2.69s WALL (       8 calls)
     sum_band     :      1.84s CPU      2.88s WALL (       8 calls)
     v_of_rho     :      1.40s CPU      1.60s WALL (       8 calls)
     newd         :      1.61s CPU      2.49s WALL (       8 calls)
     mix_rho      :      0.12s CPU      0.12s WALL (       8 calls)

     Called by c_bands:
     init_us_2    :      0.12s CPU      0.13s WALL (     136 calls)
     cegterg      :      1.98s CPU      2.01s WALL (      64 calls)

     Called by *egterg:
     cdiaghg      :      0.02s CPU      0.02s WALL (     222 calls)
     h_psi        :      1.68s CPU      1.70s WALL (     238 calls)
     s_psi        :      0.19s CPU      0.19s WALL (     238 calls)
     g_psi        :      0.02s CPU      0.02s WALL (     166 calls)

     Called by h_psi:
     h_psi:calbec :      0.19s CPU      0.19s WALL (     238 calls)
     vloc_psi     :      1.29s CPU      1.31s WALL (     238 calls)
     add_vuspsi   :      0.19s CPU      0.20s WALL (     238 calls)

     General routines
     calbec       :      0.24s CPU      0.25s WALL (     302 calls)
     fft          :      0.68s CPU      0.69s WALL (     103 calls)
     ffts         :      0.02s CPU      0.02s WALL (      16 calls)
     fftw         :      1.29s CPU      1.31s WALL (    1930 calls)
     interpolate  :      0.06s CPU      0.06s WALL (       8 calls)

     Parallel routines

     PWSCF        :      8.66s CPU     10.90s WALL


   This run was terminated on:  12:54:19  24Sep2026            

=------------------------------------------------------------------------------=
   JOB DONE.
=------------------------------------------------------------------------------=
