
     Program PWSCF v.6.7MaX starts on 24Sep2026 at 14:28:23 

     This program is part of the open-source Quantum ESPRESSO suite
     for quantum simulation of materials; please cite
         "P. Giannozzi et al., J. Phys.:Condens. Matter 21 395502 (2009);
         "P. Giannozzi et al., J. Phys.:Condens. Matter 29 465901 (2017);
          URL http://www.quantum-espresso.org", 
     in publications or presentations arising from this work. More details at
     http://www.quantum-espresso.org/quote

     Parallel version (MPI), running on     1 processors

     MPI processes distributed on     1 nodes
     Waiting for input...
     Reading input from standard input

     Current dimensions of program PWSCF are:
     Max number of different atomic species (ntypx) = 10
     Max number of k-points (npk) =  40000
     Max angular momentum in pseudopotentials (lmaxx) =  3

     Subspace diagonalization in iterative solution of the eigenvalue problem:
     a serial algorithm will be used


     G-vector sticks info
     --------------------
     sticks:   dense  smooth     PW     G-vecs:    dense   smooth      PW
     Sum        1459     733    223                36613    12939    2133



     bravais-lattice index     =            2
     lattice parameter (alat)  =      10.2630  a.u.
     unit-cell volume          =     270.2483 (a.u.)^3
     number of atoms/cell      =            2
     number of atomic types    =            1
     number of electrons       =         8.00
     number of Kohn-Sham states=            4
     kinetic-energy cutoff     =      50.0000  Ry
     charge density cutoff     =     400.0000  Ry
     scf convergence threshold =      1.0E-08
     mixing beta               =       0.7000
     number of iterations used =            8  plain     mixing
     Exchange-correlation= PBE
                           (   1   4   3   4   0   0   0)

     celldm(1)=  10.263000  celldm(2)=   0.000000  celldm(3)=   0.000000
     celldm(4)=   0.000000  celldm(5)=   0.000000  celldm(6)=   0.000000

     crystal axes: (cart. coord. in units of alat)
               a(1) = (  -0.500000   0.000000   0.500000 )  
               a(2) = (   0.000000   0.500000   0.500000 )  
               a(3) = (  -0.500000   0.500000   0.000000 )  

     reciprocal axes: (cart. coord. in units 2 pi/alat)
               b(1) = ( -1.000000 -1.000000  1.000000 )  
               b(2) = (  1.000000  1.000000  1.000000 )  
               b(3) = ( -1.000000  1.000000 -1.000000 )  


     PseudoPot. # 1 for Si read from file:
     /usr/share/espresso/pseudo/Si.pbe-n-rrkjus_psl.1.0.0.UPF
     MD5 check sum: 0b0bb1205258b0d07b9f9672cf965d36
     Pseudo is Ultrasoft + core correction, Zval =  4.0
     Generated using "atomic" code by A. Dal Corso  v.5.1
     Using radial grid of 1141 points,  6 beta functions with: 
                l(1) =   0
                l(2) =   0
                l(3) =   1
                l(4) =   1
                l(5) =   2
                l(6) =   2
     Q(r) pseudized with 0 coefficients 


     atomic species   valence    mass     pseudopotential
        Si             4.00    28.08550     Si( 1.00)

     48 Sym. Ops., with inversion, found (24 have fractional translation)



   Cartesian axes

     site n.     atom                  positions (alat units)
         1           Si  tau(   1) = (   0.0000000   0.0000000   0.0000000  )
         2           Si  tau(   2) = (  -0.2500000   0.2500000   0.2500000  )

     number of k points=    16
                       cart. coord. in units 2pi/alat
        k(    1) = (   0.0000000   0.0000000   0.0000000), wk =   0.0092593
        k(    2) = (  -0.1666667   0.1666667  -0.1666667), wk =   0.0740741
        k(    3) = (  -0.3333333   0.3333333  -0.3333333), wk =   0.0740741
        k(    4) = (   0.5000000  -0.5000000   0.5000000), wk =   0.0370370
        k(    5) = (   0.0000000   0.3333333   0.0000000), wk =   0.0555556
        k(    6) = (  -0.1666667   0.5000000  -0.1666667), wk =   0.2222222
        k(    7) = (   0.6666667  -0.3333333   0.6666667), wk =   0.2222222
        k(    8) = (   0.5000000  -0.1666667   0.5000000), wk =   0.2222222
        k(    9) = (   0.3333333   0.0000000   0.3333333), wk =   0.1111111
        k(   10) = (   0.0000000   0.6666667   0.0000000), wk =   0.0555556
        k(   11) = (   0.8333333  -0.1666667   0.8333333), wk =   0.2222222
        k(   12) = (   0.6666667  -0.0000000   0.6666667), wk =   0.1111111
        k(   13) = (   0.0000000  -1.0000000   0.0000000), wk =   0.0277778
        k(   14) = (   0.6666667  -0.3333333   1.0000000), wk =   0.2222222
        k(   15) = (   0.5000000  -0.1666667   0.8333333), wk =   0.2222222
        k(   16) = (  -0.3333333  -1.0000000   0.0000000), wk =   0.1111111

     Dense  grid:    36613 G-vectors     FFT dimensions: (  48,  48,  48)

     Smooth grid:    12939 G-vectors     FFT dimensions: (  36,  36,  36)

     Estimated max dynamical RAM per process >     131.83 MB

     Initial potential from superposition of free atoms

     starting charge    7.99888, renormalised to    8.00000
     Starting wfcs are    8 randomized atomic wfcs

     total cpu time spent up to now is        1.6 secs

     Self-consistent Calculation

     iteration #  1     ecut=    50.00 Ry     beta= 0.70
     Davidson diagonalization with overlap
     ethr =  1.00E-02,  avg # of iterations =  2.0

     Threshold (ethr) on eigenvalues was too large:
     Diagonalizing with lowered threshold

     Davidson diagonalization with overlap
     ethr =  6.31E-04,  avg # of iterations =  1.4

     total cpu time spent up to now is        3.9 secs

     total energy              =     -22.83541298 Ry
     estimated scf accuracy    <       0.05462866 Ry

     iteration #  2     ecut=    50.00 Ry     beta= 0.70
     Davidson diagonalization with overlap
     ethr =  6.83E-04,  avg # of iterations =  1.0

     total cpu time spent up to now is        5.1 secs

     total energy              =     -22.83722077 Ry
     estimated scf accuracy    <       0.00291373 Ry

     iteration #  3     ecut=    50.00 Ry     beta= 0.70
     Davidson diagonalization with overlap
     ethr =  3.64E-05,  avg # of iterations =  2.8

     total cpu time spent up to now is        6.3 secs

     total energy              =     -22.83799329 Ry
     estimated scf accuracy    <       0.00011067 Ry

     iteration #  4     ecut=    50.00 Ry     beta= 0.70
     Davidson diagonalization with overlap
     ethr =  1.38E-06,  avg # of iterations =  3.9

     total cpu time spent up to now is        7.8 secs

     total energy              =     -22.83806346 Ry
     estimated scf accuracy    <       0.00001860 Ry

     iteration #  5     ecut=    50.00 Ry     beta= 0.70
     Davidson diagonalization with overlap
     ethr =  2.32E-07,  avg # of iterations =  2.5

     total cpu time spent up to now is        9.2 secs

     total energy              =     -22.83806860 Ry
     estimated scf accuracy    <       0.00000030 Ry

     iteration #  6     ecut=    50.00 Ry     beta= 0.70
     Davidson diagonalization with overlap
     ethr =  3.76E-09,  avg # of iterations =  5.9

     total cpu time spent up to now is       11.0 secs

     total energy              =     -22.83806902 Ry
     estimated scf accuracy    <       0.00000008 Ry

     iteration #  7     ecut=    50.00 Ry     beta= 0.70
     Davidson diagonalization with overlap
     ethr =  1.05E-09,  avg # of iterations =  2.4

     total cpu time spent up to now is       12.3 secs

     End of self-consistent calculation

          k = 0.0000 0.0000 0.0000 (  1639 PWs)   bands (ev):

    -5.7535   6.2090   6.2090   6.2090

          k =-0.1667 0.1667-0.1667 (  1591 PWs)   bands (ev):

    -5.3924   3.8262   5.7578   5.7578

          k =-0.3333 0.3333-0.3333 (  1616 PWs)   bands (ev):

    -4.3771   0.8723   5.2071   5.2071

          k = 0.5000-0.5000 0.5000 (  1622 PWs)   bands (ev):

    -3.4226  -0.7633   5.0087   5.0087

          k = 0.0000 0.3333 0.0000 (  1607 PWs)   bands (ev):

    -5.2696   4.1695   5.0143   5.0143

          k =-0.1667 0.5000-0.1667 (  1611 PWs)   bands (ev):

    -4.4545   1.7705   4.2143   4.4609

          k = 0.6667-0.3333 0.6667 (  1607 PWs)   bands (ev):

    -3.2632  -0.3991   3.4302   4.4307

          k = 0.5000-0.1667 0.5000 (  1610 PWs)   bands (ev):

    -3.6482   0.2002   3.1594   4.9100

          k = 0.3333 0.0000 0.3333 (  1604 PWs)   bands (ev):

    -4.8044   2.4897   3.7944   5.6431

          k = 0.0000 0.6667 0.0000 (  1624 PWs)   bands (ev):

    -3.8498   1.1960   3.7890   3.7890

          k = 0.8333-0.1667 0.8333 (  1619 PWs)   bands (ev):

    -2.6861  -0.3586   2.5747   3.6524

          k = 0.6667-0.0000 0.6667 (  1612 PWs)   bands (ev):

    -2.4900  -0.5637   1.7938   4.0950

          k = 0.0000-1.0000 0.0000 (  1604 PWs)   bands (ev):

    -1.6100  -1.6100   3.3542   3.3542

          k = 0.6667-0.3333 1.0000 (  1610 PWs)   bands (ev):

    -3.4647   0.5629   2.6372   3.9121

          k = 0.5000-0.1667 0.8333 (  1610 PWs)   bands (ev):

    -2.4799  -0.6367   2.1971   3.4452

          k =-0.3333-1.0000 0.0000 (  1618 PWs)   bands (ev):

    -1.4901  -1.4901   2.5618   2.5618

     highest occupied level (ev):     6.2090

!    total energy              =     -22.83806904 Ry
     estimated scf accuracy    <          9.9E-09 Ry

     The total energy is the sum of the following terms:
     one-electron contribution =       5.16376976 Ry
     hartree contribution      =       1.10505257 Ry
     xc contribution           =     -12.31087291 Ry
     ewald contribution        =     -16.79601846 Ry

     convergence has been achieved in   7 iterations

     Writing output data file ./tmp/silicon.save/

     init_run     :      1.31s CPU      1.45s WALL (       1 calls)
     electrons    :      9.11s CPU     10.75s WALL (       1 calls)

     Called by init_run:
     wfcinit      :      0.41s CPU      0.41s WALL (       1 calls)
     potinit      :      0.13s CPU      0.15s WALL (       1 calls)
     hinit0       :      0.58s CPU      0.59s WALL (       1 calls)

     Called by electrons:
     c_bands      :      5.37s CPU      5.45s WALL (       8 calls)
     sum_band     :      2.00s CPU      2.87s WALL (       8 calls)
     v_of_rho     :      0.67s CPU      0.76s WALL (       8 calls)
     newd         :      1.23s CPU      1.92s WALL (       8 calls)
     mix_rho      :      0.05s CPU      0.05s WALL (       8 calls)

     Called by c_bands:
     init_us_2    :      0.24s CPU      0.24s WALL (     272 calls)
     cegterg      :      4.09s CPU      4.16s WALL (     128 calls)

     Called by *egterg:
     cdiaghg      :      0.04s CPU      0.04s WALL (     461 calls)
     h_psi        :      3.62s CPU      3.67s WALL (     493 calls)
     s_psi        :      0.37s CPU      0.37s WALL (     493 calls)
     g_psi        :      0.04s CPU      0.04s WALL (     349 calls)

     Called by h_psi:
     h_psi:calbec :      0.36s CPU      0.37s WALL (     493 calls)
     vloc_psi     :      2.87s CPU      2.91s WALL (     493 calls)
     add_vuspsi   :      0.36s CPU      0.37s WALL (     493 calls)

     General routines
     calbec       :      0.47s CPU      0.47s WALL (     621 calls)
     fft          :      0.26s CPU      0.27s WALL (     103 calls)
     ffts         :      0.03s CPU      0.03s WALL (      16 calls)
     fftw         :      2.88s CPU      2.92s WALL (    3964 calls)
     interpolate  :      0.04s CPU      0.04s WALL (       8 calls)

     Parallel routines

     PWSCF        :     10.62s CPU     12.45s WALL


   This run was terminated on:  14:28:35  24Sep2026            

=------------------------------------------------------------------------------=
   JOB DONE.
=------------------------------------------------------------------------------=
