
     Program PWSCF v.6.7MaX starts on 24Sep2026 at 14:19:53 

     This program is part of the open-source Quantum ESPRESSO suite
     for quantum simulation of materials; please cite
         "P. Giannozzi et al., J. Phys.:Condens. Matter 21 395502 (2009);
         "P. Giannozzi et al., J. Phys.:Condens. Matter 29 465901 (2017);
          URL http://www.quantum-espresso.org", 
     in publications or presentations arising from this work. More details at
     http://www.quantum-espresso.org/quote

     Parallel version (MPI), running on     1 processors

     MPI processes distributed on     1 nodes
     Waiting for input...
     Reading input from standard input

     Current dimensions of program PWSCF are:
     Max number of different atomic species (ntypx) = 10
     Max number of k-points (npk) =  40000
     Max angular momentum in pseudopotentials (lmaxx) =  3

     Subspace diagonalization in iterative solution of the eigenvalue problem:
     a serial algorithm will be used


     G-vector sticks info
     --------------------
     sticks:   dense  smooth     PW     G-vecs:    dense   smooth      PW
     Sum        1459     733    211                36613    12939    2085



     bravais-lattice index     =            2
     lattice parameter (alat)  =      10.2630  a.u.
     unit-cell volume          =     270.2483 (a.u.)^3
     number of atoms/cell      =            2
     number of atomic types    =            1
     number of electrons       =         8.00
     number of Kohn-Sham states=            4
     kinetic-energy cutoff     =      50.0000  Ry
     charge density cutoff     =     400.0000  Ry
     scf convergence threshold =      1.0E-08
     mixing beta               =       0.7000
     number of iterations used =            8  plain     mixing
     Exchange-correlation= PBE
                           (   1   4   3   4   0   0   0)

     celldm(1)=  10.263000  celldm(2)=   0.000000  celldm(3)=   0.000000
     celldm(4)=   0.000000  celldm(5)=   0.000000  celldm(6)=   0.000000

     crystal axes: (cart. coord. in units of alat)
               a(1) = (  -0.500000   0.000000   0.500000 )  
               a(2) = (   0.000000   0.500000   0.500000 )  
               a(3) = (  -0.500000   0.500000   0.000000 )  

     reciprocal axes: (cart. coord. in units 2 pi/alat)
               b(1) = ( -1.000000 -1.000000  1.000000 )  
               b(2) = (  1.000000  1.000000  1.000000 )  
               b(3) = ( -1.000000  1.000000 -1.000000 )  


     PseudoPot. # 1 for Si read from file:
     /usr/share/espresso/pseudo/Si.pbe-n-rrkjus_psl.1.0.0.UPF
     MD5 check sum: 0b0bb1205258b0d07b9f9672cf965d36
     Pseudo is Ultrasoft + core correction, Zval =  4.0
     Generated using "atomic" code by A. Dal Corso  v.5.1
     Using radial grid of 1141 points,  6 beta functions with: 
                l(1) =   0
                l(2) =   0
                l(3) =   1
                l(4) =   1
                l(5) =   2
                l(6) =   2
     Q(r) pseudized with 0 coefficients 


     atomic species   valence    mass     pseudopotential
        Si             4.00    28.08550     Si( 1.00)

     48 Sym. Ops., with inversion, found (24 have fractional translation)



   Cartesian axes

     site n.     atom                  positions (alat units)
         1           Si  tau(   1) = (   0.0000000   0.0000000   0.0000000  )
         2           Si  tau(   2) = (  -0.2500000   0.2500000   0.2500000  )

     number of k points=     4
                       cart. coord. in units 2pi/alat
        k(    1) = (   0.0000000   0.0000000   0.0000000), wk =   0.0740741
        k(    2) = (  -0.3333333   0.3333333  -0.3333333), wk =   0.5925926
        k(    3) = (   0.0000000   0.6666667   0.0000000), wk =   0.4444444
        k(    4) = (   0.6666667  -0.0000000   0.6666667), wk =   0.8888889

     Dense  grid:    36613 G-vectors     FFT dimensions: (  48,  48,  48)

     Smooth grid:    12939 G-vectors     FFT dimensions: (  36,  36,  36)

     Estimated max dynamical RAM per process >     130.65 MB

     Initial potential from superposition of free atoms

     starting charge    7.99888, renormalised to    8.00000
     Starting wfcs are    8 randomized atomic wfcs

     total cpu time spent up to now is        1.3 secs

     Self-consistent Calculation

     iteration #  1     ecut=    50.00 Ry     beta= 0.70
     Davidson diagonalization with overlap
     ethr =  1.00E-02,  avg # of iterations =  2.0

     Threshold (ethr) on eigenvalues was too large:
     Diagonalizing with lowered threshold

     Davidson diagonalization with overlap
     ethr =  8.01E-04,  avg # of iterations =  1.5

     total cpu time spent up to now is        2.5 secs

     total energy              =     -22.79121787 Ry
     estimated scf accuracy    <       0.06948451 Ry

     iteration #  2     ecut=    50.00 Ry     beta= 0.70
     Davidson diagonalization with overlap
     ethr =  8.69E-04,  avg # of iterations =  1.0

     total cpu time spent up to now is        3.3 secs

     total energy              =     -22.79344097 Ry
     estimated scf accuracy    <       0.00367413 Ry

     iteration #  3     ecut=    50.00 Ry     beta= 0.70
     Davidson diagonalization with overlap
     ethr =  4.59E-05,  avg # of iterations =  3.0

     total cpu time spent up to now is        4.2 secs

     total energy              =     -22.79432398 Ry
     estimated scf accuracy    <       0.00012949 Ry

     iteration #  4     ecut=    50.00 Ry     beta= 0.70
     Davidson diagonalization with overlap
     ethr =  1.62E-06,  avg # of iterations =  3.8

     total cpu time spent up to now is        5.1 secs

     total energy              =     -22.79438823 Ry
     estimated scf accuracy    <       0.00001847 Ry

     iteration #  5     ecut=    50.00 Ry     beta= 0.70
     Davidson diagonalization with overlap
     ethr =  2.31E-07,  avg # of iterations =  2.8

     total cpu time spent up to now is        5.9 secs

     total energy              =     -22.79439443 Ry
     estimated scf accuracy    <       0.00000089 Ry

     iteration #  6     ecut=    50.00 Ry     beta= 0.70
     Davidson diagonalization with overlap
     ethr =  1.11E-08,  avg # of iterations =  5.0

     total cpu time spent up to now is        6.8 secs

     total energy              =     -22.79439496 Ry
     estimated scf accuracy    <       0.00000037 Ry

     iteration #  7     ecut=    50.00 Ry     beta= 0.70
     Davidson diagonalization with overlap
     ethr =  4.59E-09,  avg # of iterations =  2.0

     total cpu time spent up to now is        7.7 secs

     End of self-consistent calculation

          k = 0.0000 0.0000 0.0000 (  1639 PWs)   bands (ev):

    -5.6740   6.3076   6.3076   6.3076

          k =-0.3333 0.3333-0.3333 (  1616 PWs)   bands (ev):

    -4.2949   0.9530   5.2962   5.2962

          k = 0.0000 0.6667 0.0000 (  1624 PWs)   bands (ev):

    -3.7672   1.2891   3.8669   3.8669

          k = 0.6667-0.0000 0.6667 (  1612 PWs)   bands (ev):

    -2.4026  -0.4763   1.8608   4.1754

     highest occupied level (ev):     6.3076

!    total energy              =     -22.79439503 Ry
     estimated scf accuracy    <          4.8E-09 Ry

     The total energy is the sum of the following terms:
     one-electron contribution =       5.17983562 Ry
     hartree contribution      =       1.15994320 Ry
     xc contribution           =     -12.33815539 Ry
     ewald contribution        =     -16.79601846 Ry

     convergence has been achieved in   7 iterations

     Writing output data file ./tmp/silicon.save/

     init_run     :      1.01s CPU      1.17s WALL (       1 calls)
     electrons    :      4.75s CPU      6.38s WALL (       1 calls)

     Called by init_run:
     wfcinit      :      0.10s CPU      0.10s WALL (       1 calls)
     potinit      :      0.11s CPU      0.13s WALL (       1 calls)
     hinit0       :      0.60s CPU      0.60s WALL (       1 calls)

     Called by electrons:
     c_bands      :      1.32s CPU      1.35s WALL (       8 calls)
     sum_band     :      1.51s CPU      2.43s WALL (       8 calls)
     v_of_rho     :      0.67s CPU      0.73s WALL (       8 calls)
     newd         :      1.42s CPU      2.14s WALL (       8 calls)
     mix_rho      :      0.05s CPU      0.05s WALL (       8 calls)

     Called by c_bands:
     init_us_2    :      0.06s CPU      0.07s WALL (      68 calls)
     cegterg      :      0.98s CPU      1.01s WALL (      32 calls)

     Called by *egterg:
     cdiaghg      :      0.01s CPU      0.01s WALL (     112 calls)
     h_psi        :      0.86s CPU      0.88s WALL (     120 calls)
     s_psi        :      0.10s CPU      0.10s WALL (     120 calls)
     g_psi        :      0.01s CPU      0.01s WALL (      84 calls)

     Called by h_psi:
     h_psi:calbec :      0.09s CPU      0.09s WALL (     120 calls)
     vloc_psi     :      0.68s CPU      0.69s WALL (     120 calls)
     add_vuspsi   :      0.09s CPU      0.09s WALL (     120 calls)

     General routines
     calbec       :      0.12s CPU      0.12s WALL (     152 calls)
     fft          :      0.26s CPU      0.26s WALL (     103 calls)
     ffts         :      0.03s CPU      0.03s WALL (      16 calls)
     fftw         :      0.69s CPU      0.70s WALL (     966 calls)
     interpolate  :      0.04s CPU      0.04s WALL (       8 calls)

     Parallel routines

     PWSCF        :      5.92s CPU      7.75s WALL


   This run was terminated on:  14:20: 0  24Sep2026            

=------------------------------------------------------------------------------=
   JOB DONE.
=------------------------------------------------------------------------------=
