
     Program PWSCF v.6.7MaX starts on 24Sep2026 at 14:16:37 

     This program is part of the open-source Quantum ESPRESSO suite
     for quantum simulation of materials; please cite
         "P. Giannozzi et al., J. Phys.:Condens. Matter 21 395502 (2009);
         "P. Giannozzi et al., J. Phys.:Condens. Matter 29 465901 (2017);
          URL http://www.quantum-espresso.org", 
     in publications or presentations arising from this work. More details at
     http://www.quantum-espresso.org/quote

     Parallel version (MPI), running on     1 processors

     MPI processes distributed on     1 nodes
     Waiting for input...
     Reading input from standard input

     Current dimensions of program PWSCF are:
     Max number of different atomic species (ntypx) = 10
     Max number of k-points (npk) =  40000
     Max angular momentum in pseudopotentials (lmaxx) =  3

     Subspace diagonalization in iterative solution of the eigenvalue problem:
     a serial algorithm will be used


     G-vector sticks info
     --------------------
     sticks:   dense  smooth     PW     G-vecs:    dense   smooth      PW
     Sum        1459     733    211                36613    12939    2085



     bravais-lattice index     =            2
     lattice parameter (alat)  =      10.2630  a.u.
     unit-cell volume          =     270.2483 (a.u.)^3
     number of atoms/cell      =            2
     number of atomic types    =            1
     number of electrons       =         8.00
     number of Kohn-Sham states=            4
     kinetic-energy cutoff     =      50.0000  Ry
     charge density cutoff     =     400.0000  Ry
     scf convergence threshold =      1.0E-08
     mixing beta               =       0.7000
     number of iterations used =            8  plain     mixing
     Exchange-correlation= PBE
                           (   1   4   3   4   0   0   0)

     celldm(1)=  10.263000  celldm(2)=   0.000000  celldm(3)=   0.000000
     celldm(4)=   0.000000  celldm(5)=   0.000000  celldm(6)=   0.000000

     crystal axes: (cart. coord. in units of alat)
               a(1) = (  -0.500000   0.000000   0.500000 )  
               a(2) = (   0.000000   0.500000   0.500000 )  
               a(3) = (  -0.500000   0.500000   0.000000 )  

     reciprocal axes: (cart. coord. in units 2 pi/alat)
               b(1) = ( -1.000000 -1.000000  1.000000 )  
               b(2) = (  1.000000  1.000000  1.000000 )  
               b(3) = ( -1.000000  1.000000 -1.000000 )  


     PseudoPot. # 1 for Si read from file:
     /usr/share/espresso/pseudo/Si.pbe-n-rrkjus_psl.1.0.0.UPF
     MD5 check sum: 0b0bb1205258b0d07b9f9672cf965d36
     Pseudo is Ultrasoft + core correction, Zval =  4.0
     Generated using "atomic" code by A. Dal Corso  v.5.1
     Using radial grid of 1141 points,  6 beta functions with: 
                l(1) =   0
                l(2) =   0
                l(3) =   1
                l(4) =   1
                l(5) =   2
                l(6) =   2
     Q(r) pseudized with 0 coefficients 


     atomic species   valence    mass     pseudopotential
        Si             4.00    28.08550     Si( 1.00)

     48 Sym. Ops., with inversion, found (24 have fractional translation)



   Cartesian axes

     site n.     atom                  positions (alat units)
         1           Si  tau(   1) = (   0.0000000   0.0000000   0.0000000  )
         2           Si  tau(   2) = (  -0.2500000   0.2500000   0.2500000  )

     number of k points=     3
                       cart. coord. in units 2pi/alat
        k(    1) = (   0.0000000   0.0000000   0.0000000), wk =   0.2500000
        k(    2) = (   0.5000000  -0.5000000   0.5000000), wk =   1.0000000
        k(    3) = (   0.0000000  -1.0000000   0.0000000), wk =   0.7500000

     Dense  grid:    36613 G-vectors     FFT dimensions: (  48,  48,  48)

     Smooth grid:    12939 G-vectors     FFT dimensions: (  36,  36,  36)

     Estimated max dynamical RAM per process >     130.55 MB

     Initial potential from superposition of free atoms

     starting charge    7.99888, renormalised to    8.00000
     Starting wfcs are    8 randomized atomic wfcs

     total cpu time spent up to now is        1.3 secs

     Self-consistent Calculation

     iteration #  1     ecut=    50.00 Ry     beta= 0.70
     Davidson diagonalization with overlap
     ethr =  1.00E-02,  avg # of iterations =  2.0

     total cpu time spent up to now is        2.1 secs

     total energy              =     -22.64516865 Ry
     estimated scf accuracy    <       0.09713239 Ry

     iteration #  2     ecut=    50.00 Ry     beta= 0.70
     Davidson diagonalization with overlap
     ethr =  1.21E-03,  avg # of iterations =  1.3

     total cpu time spent up to now is        2.8 secs

     total energy              =     -22.65016985 Ry
     estimated scf accuracy    <       0.00617851 Ry

     iteration #  3     ecut=    50.00 Ry     beta= 0.70
     Davidson diagonalization with overlap
     ethr =  7.72E-05,  avg # of iterations =  3.3

     total cpu time spent up to now is        3.5 secs

     total energy              =     -22.65192924 Ry
     estimated scf accuracy    <       0.00020486 Ry

     iteration #  4     ecut=    50.00 Ry     beta= 0.70
     Davidson diagonalization with overlap
     ethr =  2.56E-06,  avg # of iterations =  3.0

     total cpu time spent up to now is        4.2 secs

     total energy              =     -22.65201803 Ry
     estimated scf accuracy    <       0.00008802 Ry

     iteration #  5     ecut=    50.00 Ry     beta= 0.70
     Davidson diagonalization with overlap
     ethr =  1.10E-06,  avg # of iterations =  1.7

     total cpu time spent up to now is        5.0 secs

     total energy              =     -22.65202879 Ry
     estimated scf accuracy    <       0.00000105 Ry

     iteration #  6     ecut=    50.00 Ry     beta= 0.70
     Davidson diagonalization with overlap
     ethr =  1.32E-08,  avg # of iterations =  6.3

     total cpu time spent up to now is        5.9 secs

     total energy              =     -22.65203128 Ry
     estimated scf accuracy    <       0.00000022 Ry

     iteration #  7     ecut=    50.00 Ry     beta= 0.70
     Davidson diagonalization with overlap
     ethr =  2.69E-09,  avg # of iterations =  4.0

     total cpu time spent up to now is        6.7 secs

     total energy              =     -22.65203134 Ry
     estimated scf accuracy    <       0.00000001 Ry

     iteration #  8     ecut=    50.00 Ry     beta= 0.70
     Davidson diagonalization with overlap
     ethr =  1.59E-10,  avg # of iterations =  4.0

     total cpu time spent up to now is        7.3 secs

     End of self-consistent calculation

          k = 0.0000 0.0000 0.0000 (  1639 PWs)   bands (ev):

    -5.5173   6.5002   6.5002   6.5002

          k = 0.5000-0.5000 0.5000 (  1622 PWs)   bands (ev):

    -3.1668  -0.5393   5.2712   5.2712

          k = 0.0000-1.0000 0.0000 (  1604 PWs)   bands (ev):

    -1.3523  -1.3523   3.5816   3.5816

     highest occupied level (ev):     6.5002

!    total energy              =     -22.65203135 Ry
     estimated scf accuracy    <          2.5E-09 Ry

     The total energy is the sum of the following terms:
     one-electron contribution =       5.26818048 Ry
     hartree contribution      =       1.26939250 Ry
     xc contribution           =     -12.39358588 Ry
     ewald contribution        =     -16.79601846 Ry

     convergence has been achieved in   8 iterations

     Writing output data file ./tmp/silicon.save/

     init_run     :      0.95s CPU      1.13s WALL (       1 calls)
     electrons    :      4.55s CPU      6.01s WALL (       1 calls)

     Called by init_run:
     wfcinit      :      0.06s CPU      0.06s WALL (       1 calls)
     potinit      :      0.11s CPU      0.15s WALL (       1 calls)
     hinit0       :      0.56s CPU      0.56s WALL (       1 calls)

     Called by electrons:
     c_bands      :      1.11s CPU      1.12s WALL (       8 calls)
     sum_band     :      1.48s CPU      2.22s WALL (       8 calls)
     v_of_rho     :      0.73s CPU      0.81s WALL (       9 calls)
     newd         :      1.37s CPU      2.15s WALL (       9 calls)
     mix_rho      :      0.07s CPU      0.07s WALL (       8 calls)

     Called by c_bands:
     init_us_2    :      0.04s CPU      0.04s WALL (      51 calls)
     cegterg      :      0.85s CPU      0.86s WALL (      24 calls)

     Called by *egterg:
     cdiaghg      :      0.01s CPU      0.01s WALL (     101 calls)
     h_psi        :      0.73s CPU      0.74s WALL (     104 calls)
     s_psi        :      0.07s CPU      0.07s WALL (     104 calls)
     g_psi        :      0.01s CPU      0.01s WALL (      77 calls)

     Called by h_psi:
     h_psi:calbec :      0.08s CPU      0.08s WALL (     104 calls)
     vloc_psi     :      0.57s CPU      0.57s WALL (     104 calls)
     add_vuspsi   :      0.08s CPU      0.08s WALL (     104 calls)

     General routines
     calbec       :      0.09s CPU      0.10s WALL (     128 calls)
     fft          :      0.29s CPU      0.30s WALL (     115 calls)
     ffts         :      0.02s CPU      0.02s WALL (      17 calls)
     fftw         :      0.56s CPU      0.56s WALL (     774 calls)
     interpolate  :      0.04s CPU      0.04s WALL (       9 calls)

     Parallel routines

     PWSCF        :      5.71s CPU      7.37s WALL


   This run was terminated on:  14:16:44  24Sep2026            

=------------------------------------------------------------------------------=
   JOB DONE.
=------------------------------------------------------------------------------=
