
     Program PWSCF v.6.7MaX starts on 24Sep2026 at 14:32:23 

     This program is part of the open-source Quantum ESPRESSO suite
     for quantum simulation of materials; please cite
         "P. Giannozzi et al., J. Phys.:Condens. Matter 21 395502 (2009);
         "P. Giannozzi et al., J. Phys.:Condens. Matter 29 465901 (2017);
          URL http://www.quantum-espresso.org", 
     in publications or presentations arising from this work. More details at
     http://www.quantum-espresso.org/quote

     Parallel version (MPI), running on     1 processors

     MPI processes distributed on     1 nodes
     Waiting for input...
     Reading input from standard input

     Current dimensions of program PWSCF are:
     Max number of different atomic species (ntypx) = 10
     Max number of k-points (npk) =  40000
     Max angular momentum in pseudopotentials (lmaxx) =  3

     Subspace diagonalization in iterative solution of the eigenvalue problem:
     a serial algorithm will be used


     G-vector sticks info
     --------------------
     sticks:   dense  smooth     PW     G-vecs:    dense   smooth      PW
     Sum        1459     733    223                36613    12939    2229



     bravais-lattice index     =            2
     lattice parameter (alat)  =      10.2630  a.u.
     unit-cell volume          =     270.2483 (a.u.)^3
     number of atoms/cell      =            2
     number of atomic types    =            1
     number of electrons       =         8.00
     number of Kohn-Sham states=            4
     kinetic-energy cutoff     =      50.0000  Ry
     charge density cutoff     =     400.0000  Ry
     scf convergence threshold =      1.0E-08
     mixing beta               =       0.7000
     number of iterations used =            8  plain     mixing
     Exchange-correlation= PBE
                           (   1   4   3   4   0   0   0)

     celldm(1)=  10.263000  celldm(2)=   0.000000  celldm(3)=   0.000000
     celldm(4)=   0.000000  celldm(5)=   0.000000  celldm(6)=   0.000000

     crystal axes: (cart. coord. in units of alat)
               a(1) = (  -0.500000   0.000000   0.500000 )  
               a(2) = (   0.000000   0.500000   0.500000 )  
               a(3) = (  -0.500000   0.500000   0.000000 )  

     reciprocal axes: (cart. coord. in units 2 pi/alat)
               b(1) = ( -1.000000 -1.000000  1.000000 )  
               b(2) = (  1.000000  1.000000  1.000000 )  
               b(3) = ( -1.000000  1.000000 -1.000000 )  


     PseudoPot. # 1 for Si read from file:
     /usr/share/espresso/pseudo/Si.pbe-n-rrkjus_psl.1.0.0.UPF
     MD5 check sum: 0b0bb1205258b0d07b9f9672cf965d36
     Pseudo is Ultrasoft + core correction, Zval =  4.0
     Generated using "atomic" code by A. Dal Corso  v.5.1
     Using radial grid of 1141 points,  6 beta functions with: 
                l(1) =   0
                l(2) =   0
                l(3) =   1
                l(4) =   1
                l(5) =   2
                l(6) =   2
     Q(r) pseudized with 0 coefficients 


     atomic species   valence    mass     pseudopotential
        Si             4.00    28.08550     Si( 1.00)

     48 Sym. Ops., with inversion, found (24 have fractional translation)



   Cartesian axes

     site n.     atom                  positions (alat units)
         1           Si  tau(   1) = (   0.0000000   0.0000000   0.0000000  )
         2           Si  tau(   2) = (  -0.2500000   0.2500000   0.2500000  )

     number of k points=    29
                       cart. coord. in units 2pi/alat
        k(    1) = (   0.0000000   0.0000000   0.0000000), wk =   0.0039062
        k(    2) = (  -0.1250000   0.1250000  -0.1250000), wk =   0.0312500
        k(    3) = (  -0.2500000   0.2500000  -0.2500000), wk =   0.0312500
        k(    4) = (  -0.3750000   0.3750000  -0.3750000), wk =   0.0312500
        k(    5) = (   0.5000000  -0.5000000   0.5000000), wk =   0.0156250
        k(    6) = (   0.0000000   0.2500000   0.0000000), wk =   0.0234375
        k(    7) = (  -0.1250000   0.3750000  -0.1250000), wk =   0.0937500
        k(    8) = (  -0.2500000   0.5000000  -0.2500000), wk =   0.0937500
        k(    9) = (   0.6250000  -0.3750000   0.6250000), wk =   0.0937500
        k(   10) = (   0.5000000  -0.2500000   0.5000000), wk =   0.0937500
        k(   11) = (   0.3750000  -0.1250000   0.3750000), wk =   0.0937500
        k(   12) = (   0.2500000   0.0000000   0.2500000), wk =   0.0468750
        k(   13) = (   0.0000000   0.5000000   0.0000000), wk =   0.0234375
        k(   14) = (  -0.1250000   0.6250000  -0.1250000), wk =   0.0937500
        k(   15) = (   0.7500000  -0.2500000   0.7500000), wk =   0.0937500
        k(   16) = (   0.6250000  -0.1250000   0.6250000), wk =   0.0937500
        k(   17) = (   0.5000000   0.0000000   0.5000000), wk =   0.0468750
        k(   18) = (   0.0000000   0.7500000   0.0000000), wk =   0.0234375
        k(   19) = (   0.8750000  -0.1250000   0.8750000), wk =   0.0937500
        k(   20) = (   0.7500000   0.0000000   0.7500000), wk =   0.0468750
        k(   21) = (   0.0000000  -1.0000000   0.0000000), wk =   0.0117188
        k(   22) = (  -0.2500000   0.5000000   0.0000000), wk =   0.0937500
        k(   23) = (   0.6250000  -0.3750000   0.8750000), wk =   0.1875000
        k(   24) = (   0.5000000  -0.2500000   0.7500000), wk =   0.0937500
        k(   25) = (   0.7500000  -0.2500000   1.0000000), wk =   0.0937500
        k(   26) = (   0.6250000  -0.1250000   0.8750000), wk =   0.1875000
        k(   27) = (   0.5000000   0.0000000   0.7500000), wk =   0.0937500
        k(   28) = (  -0.2500000  -1.0000000   0.0000000), wk =   0.0468750
        k(   29) = (  -0.5000000  -1.0000000   0.0000000), wk =   0.0234375

     Dense  grid:    36613 G-vectors     FFT dimensions: (  48,  48,  48)

     Smooth grid:    12939 G-vectors     FFT dimensions: (  36,  36,  36)

     Estimated max dynamical RAM per process >     133.11 MB

     Initial potential from superposition of free atoms

     starting charge    7.99888, renormalised to    8.00000
     Starting wfcs are    8 randomized atomic wfcs

     total cpu time spent up to now is        1.8 secs

     Self-consistent Calculation

     iteration #  1     ecut=    50.00 Ry     beta= 0.70
     Davidson diagonalization with overlap
     ethr =  1.00E-02,  avg # of iterations =  2.0

     Threshold (ethr) on eigenvalues was too large:
     Diagonalizing with lowered threshold

     Davidson diagonalization with overlap
     ethr =  6.22E-04,  avg # of iterations =  1.5

     total cpu time spent up to now is        5.4 secs

     total energy              =     -22.83690334 Ry
     estimated scf accuracy    <       0.05395883 Ry

     iteration #  2     ecut=    50.00 Ry     beta= 0.70
     Davidson diagonalization with overlap
     ethr =  6.74E-04,  avg # of iterations =  1.0

     total cpu time spent up to now is        7.1 secs

     total energy              =     -22.83870701 Ry
     estimated scf accuracy    <       0.00284140 Ry

     iteration #  3     ecut=    50.00 Ry     beta= 0.70
     Davidson diagonalization with overlap
     ethr =  3.55E-05,  avg # of iterations =  2.9

     total cpu time spent up to now is        9.2 secs

     total energy              =     -22.83947334 Ry
     estimated scf accuracy    <       0.00010465 Ry

     iteration #  4     ecut=    50.00 Ry     beta= 0.70
     Davidson diagonalization with overlap
     ethr =  1.31E-06,  avg # of iterations =  3.9

     total cpu time spent up to now is       11.5 secs

     total energy              =     -22.83953823 Ry
     estimated scf accuracy    <       0.00001262 Ry

     iteration #  5     ecut=    50.00 Ry     beta= 0.70
     Davidson diagonalization with overlap
     ethr =  1.58E-07,  avg # of iterations =  3.6

     total cpu time spent up to now is       13.8 secs

     total energy              =     -22.83954385 Ry
     estimated scf accuracy    <       0.00000043 Ry

     iteration #  6     ecut=    50.00 Ry     beta= 0.70
     Davidson diagonalization with overlap
     ethr =  5.42E-09,  avg # of iterations =  4.7

     total cpu time spent up to now is       16.3 secs

     total energy              =     -22.83954410 Ry
     estimated scf accuracy    <       0.00000023 Ry

     iteration #  7     ecut=    50.00 Ry     beta= 0.70
     Davidson diagonalization with overlap
     ethr =  2.92E-09,  avg # of iterations =  2.0

     total cpu time spent up to now is       18.3 secs

     End of self-consistent calculation

          k = 0.0000 0.0000 0.0000 (  1639 PWs)   bands (ev):

    -5.7589   6.2023   6.2023   6.2023

          k =-0.1250 0.1250-0.1250 (  1606 PWs)   bands (ev):

    -5.5548   4.6027   5.9130   5.9130

          k =-0.2500 0.2500-0.2500 (  1618 PWs)   bands (ev):

    -4.9595   2.2740   5.4419   5.4419

          k =-0.3750 0.3750-0.3750 (  1610 PWs)   bands (ev):

    -4.0661   0.2540   5.1146   5.1146

          k = 0.5000-0.5000 0.5000 (  1622 PWs)   bands (ev):

    -3.4284  -0.7683   5.0027   5.0027

          k = 0.0000 0.2500 0.0000 (  1603 PWs)   bands (ev):

    -5.4860   4.8675   5.3950   5.3950

          k =-0.1250 0.3750-0.1250 (  1605 PWs)   bands (ev):

    -5.0176   2.9769   4.8830   4.9592

          k =-0.2500 0.5000-0.2500 (  1614 PWs)   bands (ev):

    -4.2029   0.9163   4.3675   4.6147

          k = 0.6250-0.3750 0.6250 (  1609 PWs)   bands (ev):

    -3.3418  -0.5470   3.9217   4.6392

          k = 0.5000-0.2500 0.5000 (  1614 PWs)   bands (ev):

    -3.5863  -0.1764   3.7400   4.9358

          k = 0.3750-0.1250 0.3750 (  1614 PWs)   bands (ev):

    -4.5091   1.5755   3.8909   5.4276

          k = 0.2500 0.0000 0.2500 (  1608 PWs)   bands (ev):

    -5.2187   3.5171   4.5733   5.9091

          k = 0.0000 0.5000 0.0000 (  1612 PWs)   bands (ev):

    -4.6773   2.6837   4.3115   4.3115

          k =-0.1250 0.6250-0.1250 (  1616 PWs)   bands (ev):

    -3.9676   1.2600   3.5310   3.9932

          k = 0.7500-0.2500 0.7500 (  1617 PWs)   bands (ev):

    -3.0419  -0.1818   2.6676   3.9964

          k = 0.6250-0.1250 0.6250 (  1611 PWs)   bands (ev):

    -2.8377  -0.4401   2.2092   4.3149

          k = 0.5000 0.0000 0.5000 (  1604 PWs)   bands (ev):

    -3.7159   0.7205   2.4493   4.8736

          k = 0.0000 0.7500 0.0000 (  1624 PWs)   bands (ev):

    -3.3653   0.4555   3.5947   3.5947

          k = 0.8750-0.1250 0.8750 (  1625 PWs)   bands (ev):

    -2.4682  -0.6294   2.7660   3.5186

          k = 0.7500 0.0000 0.7500 (  1624 PWs)   bands (ev):

    -2.0296  -1.0259   1.9003   3.7762

          k = 0.0000-1.0000 0.0000 (  1604 PWs)   bands (ev):

    -1.6158  -1.6158   3.3490   3.3490

          k =-0.2500 0.5000 0.0000 (  1610 PWs)   bands (ev):

    -4.4300   1.9113   3.4888   4.7739

          k = 0.6250-0.3750 0.8750 (  1618 PWs)   bands (ev):

    -3.5420   0.3595   2.8808   4.2723

          k = 0.5000-0.2500 0.7500 (  1614 PWs)   bands (ev):

    -2.8898  -0.5854   2.7519   4.0426

          k = 0.7500-0.2500 1.0000 (  1613 PWs)   bands (ev):

    -3.1667   0.2365   2.8396   3.4425

          k = 0.6250-0.1250 0.8750 (  1613 PWs)   bands (ev):

    -2.2922  -0.7313   2.1416   3.2418

          k = 0.5000 0.0000 0.7500 (  1616 PWs)   bands (ev):

    -2.6427  -0.3681   1.9748   3.6178

          k =-0.2500-1.0000 0.0000 (  1626 PWs)   bands (ev):

    -1.5379  -1.5379   2.7851   2.7851

          k =-0.5000-1.0000 0.0000 (  1628 PWs)   bands (ev):

    -1.4521  -1.4521   2.3494   2.3494

     highest occupied level (ev):     6.2023

!    total energy              =     -22.83954413 Ry
     estimated scf accuracy    <          1.3E-09 Ry

     The total energy is the sum of the following terms:
     one-electron contribution =       5.16411046 Ry
     hartree contribution      =       1.10150266 Ry
     xc contribution           =     -12.30913880 Ry
     ewald contribution        =     -16.79601846 Ry

     convergence has been achieved in   7 iterations

     Writing output data file ./tmp/silicon.save/

     init_run     :      1.51s CPU      1.64s WALL (       1 calls)
     electrons    :     14.95s CPU     16.53s WALL (       1 calls)

     Called by init_run:
     wfcinit      :      0.66s CPU      0.67s WALL (       1 calls)
     potinit      :      0.09s CPU      0.11s WALL (       1 calls)
     hinit0       :      0.57s CPU      0.57s WALL (       1 calls)

     Called by electrons:
     c_bands      :     10.36s CPU     10.46s WALL (       8 calls)
     sum_band     :      2.61s CPU      3.46s WALL (       8 calls)
     v_of_rho     :      0.71s CPU      0.77s WALL (       8 calls)
     newd         :      1.39s CPU      2.03s WALL (       8 calls)
     mix_rho      :      0.05s CPU      0.06s WALL (       8 calls)

     Called by c_bands:
     init_us_2    :      0.47s CPU      0.48s WALL (     493 calls)
     cegterg      :      7.84s CPU      7.90s WALL (     232 calls)

     Called by *egterg:
     cdiaghg      :      0.06s CPU      0.07s WALL (     825 calls)
     h_psi        :      6.87s CPU      6.93s WALL (     883 calls)
     s_psi        :      0.70s CPU      0.70s WALL (     883 calls)
     g_psi        :      0.07s CPU      0.07s WALL (     622 calls)

     Called by h_psi:
     h_psi:calbec :      0.68s CPU      0.69s WALL (     883 calls)
     vloc_psi     :      5.45s CPU      5.49s WALL (     883 calls)
     add_vuspsi   :      0.70s CPU      0.71s WALL (     883 calls)

     General routines
     calbec       :      0.90s CPU      0.91s WALL (    1115 calls)
     fft          :      0.27s CPU      0.27s WALL (     103 calls)
     ffts         :      0.03s CPU      0.03s WALL (      16 calls)
     fftw         :      5.55s CPU      5.60s WALL (    6946 calls)
     interpolate  :      0.04s CPU      0.04s WALL (       8 calls)

     Parallel routines

     PWSCF        :     16.66s CPU     18.44s WALL


   This run was terminated on:  14:32:42  24Sep2026            

=------------------------------------------------------------------------------=
   JOB DONE.
=------------------------------------------------------------------------------=
