
     Program PWSCF v.6.7MaX starts on 24Sep2026 at 14:43: 1 

     This program is part of the open-source Quantum ESPRESSO suite
     for quantum simulation of materials; please cite
         "P. Giannozzi et al., J. Phys.:Condens. Matter 21 395502 (2009);
         "P. Giannozzi et al., J. Phys.:Condens. Matter 29 465901 (2017);
          URL http://www.quantum-espresso.org", 
     in publications or presentations arising from this work. More details at
     http://www.quantum-espresso.org/quote

     Parallel version (MPI), running on     1 processors

     MPI processes distributed on     1 nodes
     Waiting for input...
     Reading input from standard input

     Current dimensions of program PWSCF are:
     Max number of different atomic species (ntypx) = 10
     Max number of k-points (npk) =  40000
     Max angular momentum in pseudopotentials (lmaxx) =  3

     Subspace diagonalization in iterative solution of the eigenvalue problem:
     a serial algorithm will be used


     G-vector sticks info
     --------------------
     sticks:   dense  smooth     PW     G-vecs:    dense   smooth      PW
     Sum        1459     733    223                36613    12939    2229



     bravais-lattice index     =            2
     lattice parameter (alat)  =      10.2630  a.u.
     unit-cell volume          =     270.2483 (a.u.)^3
     number of atoms/cell      =            2
     number of atomic types    =            1
     number of electrons       =         8.00
     number of Kohn-Sham states=            4
     kinetic-energy cutoff     =      50.0000  Ry
     charge density cutoff     =     400.0000  Ry
     scf convergence threshold =      1.0E-08
     mixing beta               =       0.7000
     number of iterations used =            8  plain     mixing
     Exchange-correlation= PBE
                           (   1   4   3   4   0   0   0)

     celldm(1)=  10.263000  celldm(2)=   0.000000  celldm(3)=   0.000000
     celldm(4)=   0.000000  celldm(5)=   0.000000  celldm(6)=   0.000000

     crystal axes: (cart. coord. in units of alat)
               a(1) = (  -0.500000   0.000000   0.500000 )  
               a(2) = (   0.000000   0.500000   0.500000 )  
               a(3) = (  -0.500000   0.500000   0.000000 )  

     reciprocal axes: (cart. coord. in units 2 pi/alat)
               b(1) = ( -1.000000 -1.000000  1.000000 )  
               b(2) = (  1.000000  1.000000  1.000000 )  
               b(3) = ( -1.000000  1.000000 -1.000000 )  


     PseudoPot. # 1 for Si read from file:
     /usr/share/espresso/pseudo/Si.pbe-n-rrkjus_psl.1.0.0.UPF
     MD5 check sum: 0b0bb1205258b0d07b9f9672cf965d36
     Pseudo is Ultrasoft + core correction, Zval =  4.0
     Generated using "atomic" code by A. Dal Corso  v.5.1
     Using radial grid of 1141 points,  6 beta functions with: 
                l(1) =   0
                l(2) =   0
                l(3) =   1
                l(4) =   1
                l(5) =   2
                l(6) =   2
     Q(r) pseudized with 0 coefficients 


     atomic species   valence    mass     pseudopotential
        Si             4.00    28.08550     Si( 1.00)

     48 Sym. Ops., with inversion, found (24 have fractional translation)



   Cartesian axes

     site n.     atom                  positions (alat units)
         1           Si  tau(   1) = (   0.0000000   0.0000000   0.0000000  )
         2           Si  tau(   2) = (  -0.2500000   0.2500000   0.2500000  )

     number of k points=    47
                       cart. coord. in units 2pi/alat
        k(    1) = (   0.0000000   0.0000000   0.0000000), wk =   0.0020000
        k(    2) = (  -0.1000000   0.1000000  -0.1000000), wk =   0.0160000
        k(    3) = (  -0.2000000   0.2000000  -0.2000000), wk =   0.0160000
        k(    4) = (  -0.3000000   0.3000000  -0.3000000), wk =   0.0160000
        k(    5) = (  -0.4000000   0.4000000  -0.4000000), wk =   0.0160000
        k(    6) = (   0.5000000  -0.5000000   0.5000000), wk =   0.0080000
        k(    7) = (   0.0000000   0.2000000   0.0000000), wk =   0.0120000
        k(    8) = (  -0.1000000   0.3000000  -0.1000000), wk =   0.0480000
        k(    9) = (  -0.2000000   0.4000000  -0.2000000), wk =   0.0480000
        k(   10) = (  -0.3000000   0.5000000  -0.3000000), wk =   0.0480000
        k(   11) = (   0.6000000  -0.4000000   0.6000000), wk =   0.0480000
        k(   12) = (   0.5000000  -0.3000000   0.5000000), wk =   0.0480000
        k(   13) = (   0.4000000  -0.2000000   0.4000000), wk =   0.0480000
        k(   14) = (   0.3000000  -0.1000000   0.3000000), wk =   0.0480000
        k(   15) = (   0.2000000   0.0000000   0.2000000), wk =   0.0240000
        k(   16) = (   0.0000000   0.4000000   0.0000000), wk =   0.0120000
        k(   17) = (  -0.1000000   0.5000000  -0.1000000), wk =   0.0480000
        k(   18) = (  -0.2000000   0.6000000  -0.2000000), wk =   0.0480000
        k(   19) = (   0.7000000  -0.3000000   0.7000000), wk =   0.0480000
        k(   20) = (   0.6000000  -0.2000000   0.6000000), wk =   0.0480000
        k(   21) = (   0.5000000  -0.1000000   0.5000000), wk =   0.0480000
        k(   22) = (   0.4000000   0.0000000   0.4000000), wk =   0.0240000
        k(   23) = (   0.0000000   0.6000000   0.0000000), wk =   0.0120000
        k(   24) = (  -0.1000000   0.7000000  -0.1000000), wk =   0.0480000
        k(   25) = (   0.8000000  -0.2000000   0.8000000), wk =   0.0480000
        k(   26) = (   0.7000000  -0.1000000   0.7000000), wk =   0.0480000
        k(   27) = (   0.6000000  -0.0000000   0.6000000), wk =   0.0240000
        k(   28) = (   0.0000000   0.8000000   0.0000000), wk =   0.0120000
        k(   29) = (   0.9000000  -0.1000000   0.9000000), wk =   0.0480000
        k(   30) = (   0.8000000   0.0000000   0.8000000), wk =   0.0240000
        k(   31) = (   0.0000000  -1.0000000   0.0000000), wk =   0.0060000
        k(   32) = (  -0.2000000   0.4000000   0.0000000), wk =   0.0480000
        k(   33) = (  -0.3000000   0.5000000  -0.1000000), wk =   0.0960000
        k(   34) = (   0.6000000  -0.4000000   0.8000000), wk =   0.0960000
        k(   35) = (   0.5000000  -0.3000000   0.7000000), wk =   0.0480000
        k(   36) = (  -0.2000000   0.6000000   0.0000000), wk =   0.0480000
        k(   37) = (   0.7000000  -0.3000000   0.9000000), wk =   0.0960000
        k(   38) = (   0.6000000  -0.2000000   0.8000000), wk =   0.0960000
        k(   39) = (   0.5000000  -0.1000000   0.7000000), wk =   0.0960000
        k(   40) = (   0.4000000   0.0000000   0.6000000), wk =   0.0480000
        k(   41) = (   0.8000000  -0.2000000   1.0000000), wk =   0.0480000
        k(   42) = (   0.7000000  -0.1000000   0.9000000), wk =   0.0960000
        k(   43) = (   0.6000000   0.0000000   0.8000000), wk =   0.0480000
        k(   44) = (  -0.2000000  -1.0000000   0.0000000), wk =   0.0240000
        k(   45) = (   0.6000000  -0.2000000   1.0000000), wk =   0.0480000
        k(   46) = (   0.5000000  -0.1000000   0.9000000), wk =   0.0480000
        k(   47) = (  -0.4000000  -1.0000000   0.0000000), wk =   0.0240000

     Dense  grid:    36613 G-vectors     FFT dimensions: (  48,  48,  48)

     Smooth grid:    12939 G-vectors     FFT dimensions: (  36,  36,  36)

     Estimated max dynamical RAM per process >     134.88 MB

     Initial potential from superposition of free atoms

     starting charge    7.99888, renormalised to    8.00000
     Starting wfcs are    8 randomized atomic wfcs

     total cpu time spent up to now is        2.1 secs

     Self-consistent Calculation

     iteration #  1     ecut=    50.00 Ry     beta= 0.70
     Davidson diagonalization with overlap
     ethr =  1.00E-02,  avg # of iterations =  2.0

     Threshold (ethr) on eigenvalues was too large:
     Diagonalizing with lowered threshold

     Davidson diagonalization with overlap
     ethr =  6.20E-04,  avg # of iterations =  1.4

     total cpu time spent up to now is        6.9 secs

     total energy              =     -22.83711051 Ry
     estimated scf accuracy    <       0.05368125 Ry

     iteration #  2     ecut=    50.00 Ry     beta= 0.70
     Davidson diagonalization with overlap
     ethr =  6.71E-04,  avg # of iterations =  1.0

     total cpu time spent up to now is        9.3 secs

     total energy              =     -22.83889790 Ry
     estimated scf accuracy    <       0.00286258 Ry

     iteration #  3     ecut=    50.00 Ry     beta= 0.70
     Davidson diagonalization with overlap
     ethr =  3.58E-05,  avg # of iterations =  2.9

     total cpu time spent up to now is       12.4 secs

     total energy              =     -22.83969992 Ry
     estimated scf accuracy    <       0.00011047 Ry

     iteration #  4     ecut=    50.00 Ry     beta= 0.70
     Davidson diagonalization with overlap
     ethr =  1.38E-06,  avg # of iterations =  3.9

     total cpu time spent up to now is       15.8 secs

     total energy              =     -22.83977032 Ry
     estimated scf accuracy    <       0.00001732 Ry

     iteration #  5     ecut=    50.00 Ry     beta= 0.70
     Davidson diagonalization with overlap
     ethr =  2.17E-07,  avg # of iterations =  3.0

     total cpu time spent up to now is       18.9 secs

     total energy              =     -22.83977610 Ry
     estimated scf accuracy    <       0.00000026 Ry

     iteration #  6     ecut=    50.00 Ry     beta= 0.70
     Davidson diagonalization with overlap
     ethr =  3.26E-09,  avg # of iterations =  6.3

     total cpu time spent up to now is       22.7 secs

     total energy              =     -22.83977666 Ry
     estimated scf accuracy    <       0.00000011 Ry

     iteration #  7     ecut=    50.00 Ry     beta= 0.70
     Davidson diagonalization with overlap
     ethr =  1.42E-09,  avg # of iterations =  2.1

     total cpu time spent up to now is       25.8 secs

     End of self-consistent calculation

          k = 0.0000 0.0000 0.0000 (  1639 PWs)   bands (ev):

    -5.7598   6.2012   6.2012   6.2012

          k =-0.1000 0.1000-0.1000 (  1606 PWs)   bands (ev):

    -5.6289   5.0550   6.0025   6.0025

          k =-0.2000 0.2000-0.2000 (  1606 PWs)   bands (ev):

    -5.2426   3.1915   5.6213   5.6213

          k =-0.3000 0.3000-0.3000 (  1615 PWs)   bands (ev):

    -4.6274   1.4049   5.2860   5.2860

          k =-0.4000 0.4000-0.4000 (  1616 PWs)   bands (ev):

    -3.8807  -0.0713   5.0734   5.0734

          k = 0.5000-0.5000 0.5000 (  1622 PWs)   bands (ev):

    -3.4294  -0.7692   5.0016   5.0016

          k = 0.0000 0.2000 0.0000 (  1599 PWs)   bands (ev):

    -5.5850   5.2620   5.6242   5.6242

          k =-0.1000 0.3000-0.1000 (  1609 PWs)   bands (ev):

    -5.2827   3.7488   5.1888   5.3602

          k =-0.2000 0.4000-0.2000 (  1607 PWs)   bands (ev):

    -4.7393   1.9877   4.8696   4.9266

          k =-0.3000 0.5000-0.3000 (  1610 PWs)   bands (ev):

    -4.0155   0.4142   4.5147   4.7220

          k = 0.6000-0.4000 0.6000 (  1609 PWs)   bands (ev):

    -3.3750  -0.6230   4.2241   4.7550

          k = 0.5000-0.3000 0.5000 (  1616 PWs)   bands (ev):

    -3.5422  -0.3742   4.0956   4.9549

          k = 0.4000-0.2000 0.4000 (  1621 PWs)   bands (ev):

    -4.2709   0.9082   4.1555   5.2899

          k = 0.3000-0.1000 0.3000 (  1605 PWs)   bands (ev):

    -4.9466   2.5579   4.4309   5.6965

          k = 0.2000 0.0000 0.2000 (  1592 PWs)   bands (ev):

    -5.4124   4.1696   5.0403   6.0242

          k = 0.0000 0.4000 0.0000 (  1607 PWs)   bands (ev):

    -5.0646   3.5764   4.7123   4.7123

          k =-0.1000 0.5000-0.1000 (  1612 PWs)   bands (ev):

    -4.5990   2.3292   4.2050   4.3639

          k =-0.2000 0.6000-0.2000 (  1619 PWs)   bands (ev):

    -3.9239   0.8916   3.5767   4.2041

          k = 0.7000-0.3000 0.7000 (  1606 PWs)   bands (ev):

    -3.1930  -0.2930   3.0667   4.2481

          k = 0.6000-0.2000 0.6000 (  1596 PWs)   bands (ev):

    -3.0401  -0.5014   2.7680   4.4865

          k = 0.5000-0.1000 0.5000 (  1610 PWs)   bands (ev):

    -3.6938   0.4857   2.7473   4.8841

          k = 0.4000 0.0000 0.4000 (  1610 PWs)   bands (ev):

    -4.4115   1.7243   3.2003   5.3550

          k = 0.0000 0.6000 0.0000 (  1620 PWs)   bands (ev):

    -4.2111   1.7841   3.9708   3.9708

          k =-0.1000 0.7000-0.1000 (  1625 PWs)   bands (ev):

    -3.5984   0.7782   3.3446   3.7659

          k = 0.8000-0.2000 0.8000 (  1619 PWs)   bands (ev):

    -2.8483  -0.2279   2.5158   3.7725

          k = 0.7000-0.1000 0.7000 (  1621 PWs)   bands (ev):

    -2.4291  -0.7038   1.9622   3.9881

          k = 0.6000-0.0000 0.6000 (  1608 PWs)   bands (ev):

    -2.9675  -0.1141   1.9362   4.3847

          k = 0.0000 0.8000 0.0000 (  1624 PWs)   bands (ev):

    -3.0485   0.0218   3.5057   3.5057

          k = 0.9000-0.1000 0.9000 (  1623 PWs)   bands (ev):

    -2.3197  -0.8186   2.9199   3.4571

          k = 0.8000 0.0000 0.8000 (  1622 PWs)   bands (ev):

    -1.8440  -1.2389   2.1369   3.6244

          k = 0.0000-1.0000 0.0000 (  1604 PWs)   bands (ev):

    -1.6169  -1.6169   3.3481   3.3481

          k =-0.2000 0.4000 0.0000 (  1613 PWs)   bands (ev):

    -4.8994   2.8261   4.1198   5.2293

          k =-0.3000 0.5000-0.1000 (  1609 PWs)   bands (ev):

    -4.2881   1.4169   3.5313   4.8539

          k = 0.6000-0.4000 0.8000 (  1618 PWs)   bands (ev):

    -3.5415   0.0539   3.3000   4.5035

          k = 0.5000-0.3000 0.7000 (  1608 PWs)   bands (ev):

    -3.0826  -0.6237   3.2402   4.3656

          k =-0.2000 0.6000 0.0000 (  1617 PWs)   bands (ev):

    -4.0615   1.4279   3.3930   4.1151

          k = 0.7000-0.3000 0.9000 (  1621 PWs)   bands (ev):

    -3.3414   0.3261   2.7746   3.7863

          k = 0.6000-0.2000 0.8000 (  1613 PWs)   bands (ev):

    -2.6915  -0.5366   2.3662   3.7307

          k = 0.5000-0.1000 0.7000 (  1613 PWs)   bands (ev):

    -2.8929  -0.2773   2.2156   3.9707

          k = 0.4000 0.0000 0.6000 (  1607 PWs)   bands (ev):

    -3.6282   0.6720   2.5160   4.4111

          k = 0.8000-0.2000 1.0000 (  1621 PWs)   bands (ev):

    -2.9302  -0.0638   2.9821   3.3084

          k = 0.7000-0.1000 0.9000 (  1625 PWs)   bands (ev):

    -2.1920  -0.8384   2.2803   3.2177

          k = 0.6000 0.0000 0.8000 (  1614 PWs)   bands (ev):

    -2.1977  -0.8117   1.8644   3.4874

          k =-0.2000-1.0000 0.0000 (  1624 PWs)   bands (ev):

    -1.5638  -1.5638   2.9392   2.9392

          k = 0.6000-0.2000 1.0000 (  1616 PWs)   bands (ev):

    -2.6095  -0.3617   2.2216   3.2086

          k = 0.5000-0.1000 0.9000 (  1608 PWs)   bands (ev):

    -2.0985  -0.8708   2.0639   2.9574

          k =-0.4000-1.0000 0.0000 (  1626 PWs)   bands (ev):

    -1.4702  -1.4702   2.4260   2.4260

     highest occupied level (ev):     6.2012

!    total energy              =     -22.83977668 Ry
     estimated scf accuracy    <          1.0E-08 Ry

     The total energy is the sum of the following terms:
     one-electron contribution =       5.16428201 Ry
     hartree contribution      =       1.10071469 Ry
     xc contribution           =     -12.30875493 Ry
     ewald contribution        =     -16.79601846 Ry

     convergence has been achieved in   7 iterations

     Writing output data file ./tmp/silicon.save/

     init_run     :      1.80s CPU      1.91s WALL (       1 calls)
     electrons    :     21.79s CPU     23.70s WALL (       1 calls)

     Called by init_run:
     wfcinit      :      0.98s CPU      0.99s WALL (       1 calls)
     potinit      :      0.11s CPU      0.12s WALL (       1 calls)
     hinit0       :      0.51s CPU      0.52s WALL (       1 calls)

     Called by electrons:
     c_bands      :     16.65s CPU     16.84s WALL (       8 calls)
     sum_band     :      3.30s CPU      4.26s WALL (       8 calls)
     v_of_rho     :      0.70s CPU      0.78s WALL (       8 calls)
     newd         :      1.24s CPU      1.96s WALL (       8 calls)
     mix_rho      :      0.06s CPU      0.06s WALL (       8 calls)

     Called by c_bands:
     init_us_2    :      0.70s CPU      0.72s WALL (     799 calls)
     cegterg      :     12.80s CPU     12.94s WALL (     376 calls)

     Called by *egterg:
     cdiaghg      :      0.11s CPU      0.11s WALL (    1394 calls)
     h_psi        :     11.14s CPU     11.26s WALL (    1488 calls)
     s_psi        :      1.10s CPU      1.12s WALL (    1488 calls)
     g_psi        :      0.12s CPU      0.12s WALL (    1065 calls)

     Called by h_psi:
     h_psi:calbec :      1.13s CPU      1.14s WALL (    1488 calls)
     vloc_psi     :      8.83s CPU      8.93s WALL (    1488 calls)
     add_vuspsi   :      1.12s CPU      1.13s WALL (    1488 calls)

     General routines
     calbec       :      1.44s CPU      1.45s WALL (    1864 calls)
     fft          :      0.27s CPU      0.28s WALL (     103 calls)
     ffts         :      0.03s CPU      0.03s WALL (      16 calls)
     fftw         :      8.82s CPU      8.93s WALL (   11770 calls)
     interpolate  :      0.05s CPU      0.05s WALL (       8 calls)

     Parallel routines

     PWSCF        :     23.84s CPU     25.93s WALL


   This run was terminated on:  14:43:27  24Sep2026            

=------------------------------------------------------------------------------=
   JOB DONE.
=------------------------------------------------------------------------------=
