
     Program PWSCF v.6.7MaX starts on 24Sep2026 at 15:25:22 

     This program is part of the open-source Quantum ESPRESSO suite
     for quantum simulation of materials; please cite
         "P. Giannozzi et al., J. Phys.:Condens. Matter 21 395502 (2009);
         "P. Giannozzi et al., J. Phys.:Condens. Matter 29 465901 (2017);
          URL http://www.quantum-espresso.org", 
     in publications or presentations arising from this work. More details at
     http://www.quantum-espresso.org/quote

     Parallel version (MPI), running on     1 processors

     MPI processes distributed on     1 nodes
     Waiting for input...
     Reading input from standard input

     Current dimensions of program PWSCF are:
     Max number of different atomic species (ntypx) = 10
     Max number of k-points (npk) =  40000
     Max angular momentum in pseudopotentials (lmaxx) =  3

     Subspace diagonalization in iterative solution of the eigenvalue problem:
     a serial algorithm will be used


     G-vector sticks info
     --------------------
     sticks:   dense  smooth     PW     G-vecs:    dense   smooth      PW
     Sum        1417     721    211                35749    12627    2109



     bravais-lattice index     =            2
     lattice parameter (alat)  =      10.2000  a.u.
     unit-cell volume          =     265.3020 (a.u.)^3
     number of atoms/cell      =            2
     number of atomic types    =            1
     number of electrons       =         8.00
     number of Kohn-Sham states=            4
     kinetic-energy cutoff     =      50.0000  Ry
     charge density cutoff     =     400.0000  Ry
     scf convergence threshold =      1.0E-08
     mixing beta               =       0.7000
     number of iterations used =            8  plain     mixing
     Exchange-correlation= PBE
                           (   1   4   3   4   0   0   0)

     celldm(1)=  10.200000  celldm(2)=   0.000000  celldm(3)=   0.000000
     celldm(4)=   0.000000  celldm(5)=   0.000000  celldm(6)=   0.000000

     crystal axes: (cart. coord. in units of alat)
               a(1) = (  -0.500000   0.000000   0.500000 )  
               a(2) = (   0.000000   0.500000   0.500000 )  
               a(3) = (  -0.500000   0.500000   0.000000 )  

     reciprocal axes: (cart. coord. in units 2 pi/alat)
               b(1) = ( -1.000000 -1.000000  1.000000 )  
               b(2) = (  1.000000  1.000000  1.000000 )  
               b(3) = ( -1.000000  1.000000 -1.000000 )  


     PseudoPot. # 1 for Si read from file:
     /usr/share/espresso/pseudo/Si.pbe-n-rrkjus_psl.1.0.0.UPF
     MD5 check sum: 0b0bb1205258b0d07b9f9672cf965d36
     Pseudo is Ultrasoft + core correction, Zval =  4.0
     Generated using "atomic" code by A. Dal Corso  v.5.1
     Using radial grid of 1141 points,  6 beta functions with: 
                l(1) =   0
                l(2) =   0
                l(3) =   1
                l(4) =   1
                l(5) =   2
                l(6) =   2
     Q(r) pseudized with 0 coefficients 


     atomic species   valence    mass     pseudopotential
        Si             4.00    28.08550     Si( 1.00)

     48 Sym. Ops., with inversion, found (24 have fractional translation)



   Cartesian axes

     site n.     atom                  positions (alat units)
         1           Si  tau(   1) = (   0.0000000   0.0000000   0.0000000  )
         2           Si  tau(   2) = (  -0.2500000   0.2500000   0.2500000  )

     number of k points=    29
                       cart. coord. in units 2pi/alat
        k(    1) = (   0.0000000   0.0000000   0.0000000), wk =   0.0039062
        k(    2) = (  -0.1250000   0.1250000  -0.1250000), wk =   0.0312500
        k(    3) = (  -0.2500000   0.2500000  -0.2500000), wk =   0.0312500
        k(    4) = (  -0.3750000   0.3750000  -0.3750000), wk =   0.0312500
        k(    5) = (   0.5000000  -0.5000000   0.5000000), wk =   0.0156250
        k(    6) = (   0.0000000   0.2500000   0.0000000), wk =   0.0234375
        k(    7) = (  -0.1250000   0.3750000  -0.1250000), wk =   0.0937500
        k(    8) = (  -0.2500000   0.5000000  -0.2500000), wk =   0.0937500
        k(    9) = (   0.6250000  -0.3750000   0.6250000), wk =   0.0937500
        k(   10) = (   0.5000000  -0.2500000   0.5000000), wk =   0.0937500
        k(   11) = (   0.3750000  -0.1250000   0.3750000), wk =   0.0937500
        k(   12) = (   0.2500000   0.0000000   0.2500000), wk =   0.0468750
        k(   13) = (   0.0000000   0.5000000   0.0000000), wk =   0.0234375
        k(   14) = (  -0.1250000   0.6250000  -0.1250000), wk =   0.0937500
        k(   15) = (   0.7500000  -0.2500000   0.7500000), wk =   0.0937500
        k(   16) = (   0.6250000  -0.1250000   0.6250000), wk =   0.0937500
        k(   17) = (   0.5000000   0.0000000   0.5000000), wk =   0.0468750
        k(   18) = (   0.0000000   0.7500000   0.0000000), wk =   0.0234375
        k(   19) = (   0.8750000  -0.1250000   0.8750000), wk =   0.0937500
        k(   20) = (   0.7500000   0.0000000   0.7500000), wk =   0.0468750
        k(   21) = (   0.0000000  -1.0000000   0.0000000), wk =   0.0117188
        k(   22) = (  -0.2500000   0.5000000   0.0000000), wk =   0.0937500
        k(   23) = (   0.6250000  -0.3750000   0.8750000), wk =   0.1875000
        k(   24) = (   0.5000000  -0.2500000   0.7500000), wk =   0.0937500
        k(   25) = (   0.7500000  -0.2500000   1.0000000), wk =   0.0937500
        k(   26) = (   0.6250000  -0.1250000   0.8750000), wk =   0.1875000
        k(   27) = (   0.5000000   0.0000000   0.7500000), wk =   0.0937500
        k(   28) = (  -0.2500000  -1.0000000   0.0000000), wk =   0.0468750
        k(   29) = (  -0.5000000  -1.0000000   0.0000000), wk =   0.0234375

     Dense  grid:    35749 G-vectors     FFT dimensions: (  48,  48,  48)

     Smooth grid:    12627 G-vectors     FFT dimensions: (  36,  36,  36)

     Estimated max dynamical RAM per process >     130.21 MB

     Initial potential from superposition of free atoms

     starting charge    7.99888, renormalised to    8.00000
     Starting wfcs are    8 randomized atomic wfcs

     total cpu time spent up to now is        1.9 secs

     Self-consistent Calculation

     iteration #  1     ecut=    50.00 Ry     beta= 0.70
     Davidson diagonalization with overlap
     ethr =  1.00E-02,  avg # of iterations =  2.0

     Threshold (ethr) on eigenvalues was too large:
     Diagonalizing with lowered threshold

     Davidson diagonalization with overlap
     ethr =  6.42E-04,  avg # of iterations =  1.5

     total cpu time spent up to now is        5.3 secs

     total energy              =     -22.83575056 Ry
     estimated scf accuracy    <       0.05560243 Ry

     iteration #  2     ecut=    50.00 Ry     beta= 0.70
     Davidson diagonalization with overlap
     ethr =  6.95E-04,  avg # of iterations =  1.0

     total cpu time spent up to now is        7.0 secs

     total energy              =     -22.83767387 Ry
     estimated scf accuracy    <       0.00286342 Ry

     iteration #  3     ecut=    50.00 Ry     beta= 0.70
     Davidson diagonalization with overlap
     ethr =  3.58E-05,  avg # of iterations =  2.8

     total cpu time spent up to now is        8.9 secs

     total energy              =     -22.83849406 Ry
     estimated scf accuracy    <       0.00011106 Ry

     iteration #  4     ecut=    50.00 Ry     beta= 0.70
     Davidson diagonalization with overlap
     ethr =  1.39E-06,  avg # of iterations =  3.8

     total cpu time spent up to now is       11.1 secs

     total energy              =     -22.83856267 Ry
     estimated scf accuracy    <       0.00001381 Ry

     iteration #  5     ecut=    50.00 Ry     beta= 0.70
     Davidson diagonalization with overlap
     ethr =  1.73E-07,  avg # of iterations =  3.4

     total cpu time spent up to now is       13.3 secs

     total energy              =     -22.83856833 Ry
     estimated scf accuracy    <       0.00000043 Ry

     iteration #  6     ecut=    50.00 Ry     beta= 0.70
     Davidson diagonalization with overlap
     ethr =  5.31E-09,  avg # of iterations =  4.9

     total cpu time spent up to now is       15.9 secs

     total energy              =     -22.83856867 Ry
     estimated scf accuracy    <       0.00000020 Ry

     iteration #  7     ecut=    50.00 Ry     beta= 0.70
     Davidson diagonalization with overlap
     ethr =  2.44E-09,  avg # of iterations =  2.1

     total cpu time spent up to now is       17.9 secs

     End of self-consistent calculation

          k = 0.0000 0.0000 0.0000 (  1591 PWs)   bands (ev):

    -5.6923   6.3973   6.3973   6.3973

          k =-0.1250 0.1250-0.1250 (  1564 PWs)   bands (ev):

    -5.4850   4.7908   6.1026   6.1026

          k =-0.2500 0.2500-0.2500 (  1582 PWs)   bands (ev):

    -4.8797   2.4338   5.6248   5.6248

          k =-0.3750 0.3750-0.3750 (  1592 PWs)   bands (ev):

    -3.9691   0.3824   5.2941   5.2941

          k = 0.5000-0.5000 0.5000 (  1568 PWs)   bands (ev):

    -3.3146  -0.6617   5.1812   5.1812

          k = 0.0000 0.2500 0.0000 (  1571 PWs)   bands (ev):

    -5.4151   5.0792   5.5728   5.5728

          k =-0.1250 0.3750-0.1250 (  1581 PWs)   bands (ev):

    -4.9390   3.1562   5.0528   5.1405

          k =-0.2500 0.5000-0.2500 (  1588 PWs)   bands (ev):

    -4.1097   1.0617   4.5417   4.7820

          k = 0.6250-0.3750 0.6250 (  1581 PWs)   bands (ev):

    -3.2284  -0.4308   4.0884   4.8088

          k = 0.5000-0.2500 0.5000 (  1586 PWs)   bands (ev):

    -3.4794  -0.0518   3.9008   5.1118

          k = 0.3750-0.1250 0.3750 (  1575 PWs)   bands (ev):

    -4.4216   1.7324   4.0485   5.6126

          k = 0.2500 0.0000 0.2500 (  1564 PWs)   bands (ev):

    -5.1434   3.7045   4.7345   6.1021

          k = 0.0000 0.5000 0.0000 (  1587 PWs)   bands (ev):

    -4.5934   2.8814   4.4714   4.4714

          k =-0.1250 0.6250-0.1250 (  1586 PWs)   bands (ev):

    -3.8716   1.4340   3.6782   4.1488

          k = 0.7500-0.2500 0.7500 (  1592 PWs)   bands (ev):

    -2.9270  -0.0379   2.8014   4.1531

          k = 0.6250-0.1250 0.6250 (  1574 PWs)   bands (ev):

    -2.7164  -0.3039   2.3330   4.4779

          k = 0.5000 0.0000 0.5000 (  1576 PWs)   bands (ev):

    -3.6139   0.8808   2.5723   5.0474

          k = 0.0000 0.7500 0.0000 (  1600 PWs)   bands (ev):

    -3.2599   0.6230   3.7440   3.7440

          k = 0.8750-0.1250 0.8750 (  1590 PWs)   bands (ev):

    -2.3469  -0.4782   2.8942   3.6670

          k = 0.7500 0.0000 0.7500 (  1580 PWs)   bands (ev):

    -1.8941  -0.8849   2.0072   3.9293

          k = 0.0000-1.0000 0.0000 (  1588 PWs)   bands (ev):

    -1.4816  -1.4816   3.4947   3.4947

          k =-0.2500 0.5000 0.0000 (  1576 PWs)   bands (ev):

    -4.3415   2.0888   3.6315   4.9460

          k = 0.6250-0.3750 0.8750 (  1583 PWs)   bands (ev):

    -3.4367   0.5081   3.0206   4.4319

          k = 0.5000-0.2500 0.7500 (  1570 PWs)   bands (ev):

    -2.7681  -0.4596   2.8941   4.1963

          k = 0.7500-0.2500 1.0000 (  1604 PWs)   bands (ev):

    -3.0567   0.4009   2.9707   3.5831

          k = 0.6250-0.1250 0.8750 (  1589 PWs)   bands (ev):

    -2.1631  -0.5843   2.2567   3.3782

          k = 0.5000 0.0000 0.7500 (  1576 PWs)   bands (ev):

    -2.5199  -0.2164   2.0859   3.7625

          k =-0.2500-1.0000 0.0000 (  1598 PWs)   bands (ev):

    -1.3998  -1.3998   2.9134   2.9134

          k =-0.5000-1.0000 0.0000 (  1604 PWs)   bands (ev):

    -1.3093  -1.3093   2.4649   2.4649

     highest occupied level (ev):     6.3973

!    total energy              =     -22.83856870 Ry
     estimated scf accuracy    <          4.8E-09 Ry

     The total energy is the sum of the following terms:
     one-electron contribution =       5.30781293 Ry
     hartree contribution      =       1.08524264 Ry
     xc contribution           =     -12.33186570 Ry
     ewald contribution        =     -16.89975857 Ry

     convergence has been achieved in   7 iterations

     Writing output data file ./tmp/silicon.save/

     init_run     :      1.50s CPU      1.63s WALL (       1 calls)
     electrons    :     14.37s CPU     16.09s WALL (       1 calls)

     Called by init_run:
     wfcinit      :      0.62s CPU      0.63s WALL (       1 calls)
     potinit      :      0.13s CPU      0.15s WALL (       1 calls)
     hinit0       :      0.56s CPU      0.56s WALL (       1 calls)

     Called by electrons:
     c_bands      :     10.04s CPU     10.14s WALL (       8 calls)
     sum_band     :      2.60s CPU      3.54s WALL (       8 calls)
     v_of_rho     :      0.69s CPU      0.77s WALL (       8 calls)
     newd         :      1.20s CPU      1.88s WALL (       8 calls)
     mix_rho      :      0.06s CPU      0.06s WALL (       8 calls)

     Called by c_bands:
     init_us_2    :      0.45s CPU      0.46s WALL (     493 calls)
     cegterg      :      7.58s CPU      7.66s WALL (     232 calls)

     Called by *egterg:
     cdiaghg      :      0.06s CPU      0.06s WALL (     826 calls)
     h_psi        :      6.59s CPU      6.65s WALL (     884 calls)
     s_psi        :      0.68s CPU      0.69s WALL (     884 calls)
     g_psi        :      0.08s CPU      0.08s WALL (     623 calls)

     Called by h_psi:
     h_psi:calbec :      0.66s CPU      0.67s WALL (     884 calls)
     vloc_psi     :      5.21s CPU      5.25s WALL (     884 calls)
     add_vuspsi   :      0.68s CPU      0.69s WALL (     884 calls)

     General routines
     calbec       :      0.87s CPU      0.88s WALL (    1116 calls)
     fft          :      0.26s CPU      0.27s WALL (     103 calls)
     ffts         :      0.03s CPU      0.03s WALL (      16 calls)
     fftw         :      5.24s CPU      5.29s WALL (    7052 calls)
     interpolate  :      0.04s CPU      0.04s WALL (       8 calls)

     Parallel routines

     PWSCF        :     16.13s CPU     18.07s WALL


   This run was terminated on:  15:25:40  24Sep2026            

=------------------------------------------------------------------------------=
   JOB DONE.
=------------------------------------------------------------------------------=
