
     Program PWSCF v.6.7MaX starts on 24Sep2026 at 15:29:23 

     This program is part of the open-source Quantum ESPRESSO suite
     for quantum simulation of materials; please cite
         "P. Giannozzi et al., J. Phys.:Condens. Matter 21 395502 (2009);
         "P. Giannozzi et al., J. Phys.:Condens. Matter 29 465901 (2017);
          URL http://www.quantum-espresso.org", 
     in publications or presentations arising from this work. More details at
     http://www.quantum-espresso.org/quote

     Parallel version (MPI), running on     1 processors

     MPI processes distributed on     1 nodes
     Waiting for input...
     Reading input from standard input

     Current dimensions of program PWSCF are:
     Max number of different atomic species (ntypx) = 10
     Max number of k-points (npk) =  40000
     Max angular momentum in pseudopotentials (lmaxx) =  3

     Subspace diagonalization in iterative solution of the eigenvalue problem:
     a serial algorithm will be used


     G-vector sticks info
     --------------------
     sticks:   dense  smooth     PW     G-vecs:    dense   smooth      PW
     Sum        1483     745    223                37461    13323    2229



     bravais-lattice index     =            2
     lattice parameter (alat)  =      10.3500  a.u.
     unit-cell volume          =     277.1795 (a.u.)^3
     number of atoms/cell      =            2
     number of atomic types    =            1
     number of electrons       =         8.00
     number of Kohn-Sham states=            4
     kinetic-energy cutoff     =      50.0000  Ry
     charge density cutoff     =     400.0000  Ry
     scf convergence threshold =      1.0E-08
     mixing beta               =       0.7000
     number of iterations used =            8  plain     mixing
     Exchange-correlation= PBE
                           (   1   4   3   4   0   0   0)

     celldm(1)=  10.350000  celldm(2)=   0.000000  celldm(3)=   0.000000
     celldm(4)=   0.000000  celldm(5)=   0.000000  celldm(6)=   0.000000

     crystal axes: (cart. coord. in units of alat)
               a(1) = (  -0.500000   0.000000   0.500000 )  
               a(2) = (   0.000000   0.500000   0.500000 )  
               a(3) = (  -0.500000   0.500000   0.000000 )  

     reciprocal axes: (cart. coord. in units 2 pi/alat)
               b(1) = ( -1.000000 -1.000000  1.000000 )  
               b(2) = (  1.000000  1.000000  1.000000 )  
               b(3) = ( -1.000000  1.000000 -1.000000 )  


     PseudoPot. # 1 for Si read from file:
     /usr/share/espresso/pseudo/Si.pbe-n-rrkjus_psl.1.0.0.UPF
     MD5 check sum: 0b0bb1205258b0d07b9f9672cf965d36
     Pseudo is Ultrasoft + core correction, Zval =  4.0
     Generated using "atomic" code by A. Dal Corso  v.5.1
     Using radial grid of 1141 points,  6 beta functions with: 
                l(1) =   0
                l(2) =   0
                l(3) =   1
                l(4) =   1
                l(5) =   2
                l(6) =   2
     Q(r) pseudized with 0 coefficients 


     atomic species   valence    mass     pseudopotential
        Si             4.00    28.08550     Si( 1.00)

     48 Sym. Ops., with inversion, found (24 have fractional translation)



   Cartesian axes

     site n.     atom                  positions (alat units)
         1           Si  tau(   1) = (   0.0000000   0.0000000   0.0000000  )
         2           Si  tau(   2) = (  -0.2500000   0.2500000   0.2500000  )

     number of k points=    29
                       cart. coord. in units 2pi/alat
        k(    1) = (   0.0000000   0.0000000   0.0000000), wk =   0.0039062
        k(    2) = (  -0.1250000   0.1250000  -0.1250000), wk =   0.0312500
        k(    3) = (  -0.2500000   0.2500000  -0.2500000), wk =   0.0312500
        k(    4) = (  -0.3750000   0.3750000  -0.3750000), wk =   0.0312500
        k(    5) = (   0.5000000  -0.5000000   0.5000000), wk =   0.0156250
        k(    6) = (   0.0000000   0.2500000   0.0000000), wk =   0.0234375
        k(    7) = (  -0.1250000   0.3750000  -0.1250000), wk =   0.0937500
        k(    8) = (  -0.2500000   0.5000000  -0.2500000), wk =   0.0937500
        k(    9) = (   0.6250000  -0.3750000   0.6250000), wk =   0.0937500
        k(   10) = (   0.5000000  -0.2500000   0.5000000), wk =   0.0937500
        k(   11) = (   0.3750000  -0.1250000   0.3750000), wk =   0.0937500
        k(   12) = (   0.2500000   0.0000000   0.2500000), wk =   0.0468750
        k(   13) = (   0.0000000   0.5000000   0.0000000), wk =   0.0234375
        k(   14) = (  -0.1250000   0.6250000  -0.1250000), wk =   0.0937500
        k(   15) = (   0.7500000  -0.2500000   0.7500000), wk =   0.0937500
        k(   16) = (   0.6250000  -0.1250000   0.6250000), wk =   0.0937500
        k(   17) = (   0.5000000   0.0000000   0.5000000), wk =   0.0468750
        k(   18) = (   0.0000000   0.7500000   0.0000000), wk =   0.0234375
        k(   19) = (   0.8750000  -0.1250000   0.8750000), wk =   0.0937500
        k(   20) = (   0.7500000   0.0000000   0.7500000), wk =   0.0468750
        k(   21) = (   0.0000000  -1.0000000   0.0000000), wk =   0.0117188
        k(   22) = (  -0.2500000   0.5000000   0.0000000), wk =   0.0937500
        k(   23) = (   0.6250000  -0.3750000   0.8750000), wk =   0.1875000
        k(   24) = (   0.5000000  -0.2500000   0.7500000), wk =   0.0937500
        k(   25) = (   0.7500000  -0.2500000   1.0000000), wk =   0.0937500
        k(   26) = (   0.6250000  -0.1250000   0.8750000), wk =   0.1875000
        k(   27) = (   0.5000000   0.0000000   0.7500000), wk =   0.0937500
        k(   28) = (  -0.2500000  -1.0000000   0.0000000), wk =   0.0468750
        k(   29) = (  -0.5000000  -1.0000000   0.0000000), wk =   0.0234375

     Dense  grid:    37461 G-vectors     FFT dimensions: (  48,  48,  48)

     Smooth grid:    13323 G-vectors     FFT dimensions: (  36,  36,  36)

     Estimated max dynamical RAM per process >     135.99 MB

     Initial potential from superposition of free atoms

     starting charge    7.99888, renormalised to    8.00000
     Starting wfcs are    8 randomized atomic wfcs

     total cpu time spent up to now is        1.9 secs

     Self-consistent Calculation

     iteration #  1     ecut=    50.00 Ry     beta= 0.70
     Davidson diagonalization with overlap
     ethr =  1.00E-02,  avg # of iterations =  2.0

     Threshold (ethr) on eigenvalues was too large:
     Diagonalizing with lowered threshold

     Davidson diagonalization with overlap
     ethr =  5.96E-04,  avg # of iterations =  1.5

     total cpu time spent up to now is        5.4 secs

     total energy              =     -22.83745890 Ry
     estimated scf accuracy    <       0.05168155 Ry

     iteration #  2     ecut=    50.00 Ry     beta= 0.70
     Davidson diagonalization with overlap
     ethr =  6.46E-04,  avg # of iterations =  1.0

     total cpu time spent up to now is        7.2 secs

     total energy              =     -22.83910343 Ry
     estimated scf accuracy    <       0.00284439 Ry

     iteration #  3     ecut=    50.00 Ry     beta= 0.70
     Davidson diagonalization with overlap
     ethr =  3.56E-05,  avg # of iterations =  2.7

     total cpu time spent up to now is        9.3 secs

     total energy              =     -22.83984255 Ry
     estimated scf accuracy    <       0.00010463 Ry

     iteration #  4     ecut=    50.00 Ry     beta= 0.70
     Davidson diagonalization with overlap
     ethr =  1.31E-06,  avg # of iterations =  3.8

     total cpu time spent up to now is       11.6 secs

     total energy              =     -22.83990767 Ry
     estimated scf accuracy    <       0.00001848 Ry

     iteration #  5     ecut=    50.00 Ry     beta= 0.70
     Davidson diagonalization with overlap
     ethr =  2.31E-07,  avg # of iterations =  3.2

     total cpu time spent up to now is       13.7 secs

     total energy              =     -22.83991392 Ry
     estimated scf accuracy    <       0.00000038 Ry

     iteration #  6     ecut=    50.00 Ry     beta= 0.70
     Davidson diagonalization with overlap
     ethr =  4.78E-09,  avg # of iterations =  5.8

     total cpu time spent up to now is       16.5 secs

     total energy              =     -22.83991443 Ry
     estimated scf accuracy    <       0.00000014 Ry

     iteration #  7     ecut=    50.00 Ry     beta= 0.70
     Davidson diagonalization with overlap
     ethr =  1.79E-09,  avg # of iterations =  2.1

     total cpu time spent up to now is       18.6 secs

     End of self-consistent calculation

          k = 0.0000 0.0000 0.0000 (  1639 PWs)   bands (ev):

    -5.8480   5.9405   5.9405   5.9405

          k =-0.1250 0.1250-0.1250 (  1669 PWs)   bands (ev):

    -5.6484   4.3480   5.6586   5.6586

          k =-0.2500 0.2500-0.2500 (  1642 PWs)   bands (ev):

    -5.0666   2.0579   5.1965   5.1965

          k =-0.3750 0.3750-0.3750 (  1655 PWs)   bands (ev):

    -4.1963   0.0804   4.8740   4.8740

          k = 0.5000-0.5000 0.5000 (  1676 PWs)   bands (ev):

    -3.5810  -0.9127   4.7634   4.7634

          k = 0.0000 0.2500 0.0000 (  1667 PWs)   bands (ev):

    -5.5811   4.5811   5.1563   5.1563

          k =-0.1250 0.3750-0.1250 (  1654 PWs)   bands (ev):

    -5.1230   2.7339   4.6551   4.7163

          k =-0.2500 0.5000-0.2500 (  1660 PWs)   bands (ev):

    -4.3281   0.7194   4.1340   4.3904

          k = 0.6250-0.3750 0.6250 (  1662 PWs)   bands (ev):

    -3.4940  -0.7044   3.6984   4.4117

          k = 0.5000-0.2500 0.5000 (  1658 PWs)   bands (ev):

    -3.7297  -0.3451   3.5245   4.6998

          k = 0.3750-0.1250 0.3750 (  1652 PWs)   bands (ev):

    -4.6267   1.3632   3.6798   5.1796

          k = 0.2500 0.0000 0.2500 (  1650 PWs)   bands (ev):

    -5.3198   3.2636   4.3568   5.6503

          k = 0.0000 0.5000 0.0000 (  1636 PWs)   bands (ev):

    -4.7900   2.4169   4.0970   4.0970

          k =-0.1250 0.6250-0.1250 (  1659 PWs)   bands (ev):

    -4.0965   1.0252   3.3338   3.7846

          k = 0.7500-0.2500 0.7500 (  1651 PWs)   bands (ev):

    -3.1962  -0.3763   2.4888   3.7862

          k = 0.6250-0.1250 0.6250 (  1654 PWs)   bands (ev):

    -3.0005  -0.6245   2.0436   4.0963

          k = 0.5000 0.0000 0.5000 (  1658 PWs)   bands (ev):

    -3.8529   0.5042   2.2846   4.6405

          k = 0.0000 0.7500 0.0000 (  1664 PWs)   bands (ev):

    -3.5069   0.2297   3.3947   3.3947

          k = 0.8750-0.1250 0.8750 (  1656 PWs)   bands (ev):

    -2.6315  -0.8330   2.5941   3.3196

          k = 0.7500 0.0000 0.7500 (  1666 PWs)   bands (ev):

    -2.2115  -1.2159   1.7566   3.5709

          k = 0.0000-1.0000 0.0000 (  1660 PWs)   bands (ev):

    -1.7966  -1.7966   3.1538   3.1538

          k =-0.2500 0.5000 0.0000 (  1654 PWs)   bands (ev):

    -4.5488   1.6715   3.2974   4.5431

          k = 0.6250-0.3750 0.8750 (  1649 PWs)   bands (ev):

    -3.6835   0.1584   2.6939   4.0582

          k = 0.5000-0.2500 0.7500 (  1644 PWs)   bands (ev):

    -3.0531  -0.7560   2.5619   3.8364

          k = 0.7500-0.2500 1.0000 (  1662 PWs)   bands (ev):

    -3.3147   0.0152   2.6639   3.2537

          k = 0.6250-0.1250 0.8750 (  1658 PWs)   bands (ev):

    -2.4656  -0.9293   1.9873   3.0587

          k = 0.5000 0.0000 0.7500 (  1651 PWs)   bands (ev):

    -2.8078  -0.5726   1.8258   3.4236

          k =-0.2500-1.0000 0.0000 (  1662 PWs)   bands (ev):

    -1.7237  -1.7237   2.6130   2.6130

          k =-0.5000-1.0000 0.0000 (  1648 PWs)   bands (ev):

    -1.6439  -1.6439   2.1942   2.1942

     highest occupied level (ev):     5.9405

!    total energy              =     -22.83991446 Ry
     estimated scf accuracy    <          4.0E-09 Ry

     The total energy is the sum of the following terms:
     one-electron contribution =       4.96944393 Ry
     hartree contribution      =       1.12393607 Ry
     xc contribution           =     -12.27845992 Ry
     ewald contribution        =     -16.65483453 Ry

     convergence has been achieved in   7 iterations

     Writing output data file ./tmp/silicon.save/

     init_run     :      1.57s CPU      1.72s WALL (       1 calls)
     electrons    :     15.02s CPU     16.70s WALL (       1 calls)

     Called by init_run:
     wfcinit      :      0.64s CPU      0.65s WALL (       1 calls)
     potinit      :      0.14s CPU      0.16s WALL (       1 calls)
     hinit0       :      0.59s CPU      0.60s WALL (       1 calls)

     Called by electrons:
     c_bands      :     10.56s CPU     10.66s WALL (       8 calls)
     sum_band     :      2.66s CPU      3.53s WALL (       8 calls)
     v_of_rho     :      0.68s CPU      0.76s WALL (       8 calls)
     newd         :      1.29s CPU      2.03s WALL (       8 calls)
     mix_rho      :      0.05s CPU      0.05s WALL (       8 calls)

     Called by c_bands:
     init_us_2    :      0.46s CPU      0.47s WALL (     493 calls)
     cegterg      :      8.03s CPU      8.10s WALL (     232 calls)

     Called by *egterg:
     cdiaghg      :      0.07s CPU      0.07s WALL (     844 calls)
     h_psi        :      6.96s CPU      7.03s WALL (     902 calls)
     s_psi        :      0.72s CPU      0.73s WALL (     902 calls)
     g_psi        :      0.08s CPU      0.08s WALL (     641 calls)

     Called by h_psi:
     h_psi:calbec :      0.72s CPU      0.72s WALL (     902 calls)
     vloc_psi     :      5.48s CPU      5.54s WALL (     902 calls)
     add_vuspsi   :      0.72s CPU      0.73s WALL (     902 calls)

     General routines
     calbec       :      0.92s CPU      0.93s WALL (    1134 calls)
     fft          :      0.27s CPU      0.27s WALL (     103 calls)
     ffts         :      0.03s CPU      0.03s WALL (      16 calls)
     fftw         :      5.48s CPU      5.54s WALL (    7096 calls)
     interpolate  :      0.04s CPU      0.04s WALL (       8 calls)

     Parallel routines

     PWSCF        :     16.80s CPU     18.66s WALL


   This run was terminated on:  15:29:42  24Sep2026            

=------------------------------------------------------------------------------=
   JOB DONE.
=------------------------------------------------------------------------------=
