
     Program PWSCF v.6.7MaX starts on 24Sep2026 at 15:26:47 

     This program is part of the open-source Quantum ESPRESSO suite
     for quantum simulation of materials; please cite
         "P. Giannozzi et al., J. Phys.:Condens. Matter 21 395502 (2009);
         "P. Giannozzi et al., J. Phys.:Condens. Matter 29 465901 (2017);
          URL http://www.quantum-espresso.org", 
     in publications or presentations arising from this work. More details at
     http://www.quantum-espresso.org/quote

     Parallel version (MPI), running on     1 processors

     MPI processes distributed on     1 nodes
     Waiting for input...
     Reading input from standard input

     Current dimensions of program PWSCF are:
     Max number of different atomic species (ntypx) = 10
     Max number of k-points (npk) =  40000
     Max angular momentum in pseudopotentials (lmaxx) =  3

     Subspace diagonalization in iterative solution of the eigenvalue problem:
     a serial algorithm will be used


     G-vector sticks info
     --------------------
     sticks:   dense  smooth     PW     G-vecs:    dense   smooth      PW
     Sum        1453     733    223                36325    12939    2229



     bravais-lattice index     =            2
     lattice parameter (alat)  =      10.2500  a.u.
     unit-cell volume          =     269.2227 (a.u.)^3
     number of atoms/cell      =            2
     number of atomic types    =            1
     number of electrons       =         8.00
     number of Kohn-Sham states=            4
     kinetic-energy cutoff     =      50.0000  Ry
     charge density cutoff     =     400.0000  Ry
     scf convergence threshold =      1.0E-08
     mixing beta               =       0.7000
     number of iterations used =            8  plain     mixing
     Exchange-correlation= PBE
                           (   1   4   3   4   0   0   0)

     celldm(1)=  10.250000  celldm(2)=   0.000000  celldm(3)=   0.000000
     celldm(4)=   0.000000  celldm(5)=   0.000000  celldm(6)=   0.000000

     crystal axes: (cart. coord. in units of alat)
               a(1) = (  -0.500000   0.000000   0.500000 )  
               a(2) = (   0.000000   0.500000   0.500000 )  
               a(3) = (  -0.500000   0.500000   0.000000 )  

     reciprocal axes: (cart. coord. in units 2 pi/alat)
               b(1) = ( -1.000000 -1.000000  1.000000 )  
               b(2) = (  1.000000  1.000000  1.000000 )  
               b(3) = ( -1.000000  1.000000 -1.000000 )  


     PseudoPot. # 1 for Si read from file:
     /usr/share/espresso/pseudo/Si.pbe-n-rrkjus_psl.1.0.0.UPF
     MD5 check sum: 0b0bb1205258b0d07b9f9672cf965d36
     Pseudo is Ultrasoft + core correction, Zval =  4.0
     Generated using "atomic" code by A. Dal Corso  v.5.1
     Using radial grid of 1141 points,  6 beta functions with: 
                l(1) =   0
                l(2) =   0
                l(3) =   1
                l(4) =   1
                l(5) =   2
                l(6) =   2
     Q(r) pseudized with 0 coefficients 


     atomic species   valence    mass     pseudopotential
        Si             4.00    28.08550     Si( 1.00)

     48 Sym. Ops., with inversion, found (24 have fractional translation)



   Cartesian axes

     site n.     atom                  positions (alat units)
         1           Si  tau(   1) = (   0.0000000   0.0000000   0.0000000  )
         2           Si  tau(   2) = (  -0.2500000   0.2500000   0.2500000  )

     number of k points=    29
                       cart. coord. in units 2pi/alat
        k(    1) = (   0.0000000   0.0000000   0.0000000), wk =   0.0039062
        k(    2) = (  -0.1250000   0.1250000  -0.1250000), wk =   0.0312500
        k(    3) = (  -0.2500000   0.2500000  -0.2500000), wk =   0.0312500
        k(    4) = (  -0.3750000   0.3750000  -0.3750000), wk =   0.0312500
        k(    5) = (   0.5000000  -0.5000000   0.5000000), wk =   0.0156250
        k(    6) = (   0.0000000   0.2500000   0.0000000), wk =   0.0234375
        k(    7) = (  -0.1250000   0.3750000  -0.1250000), wk =   0.0937500
        k(    8) = (  -0.2500000   0.5000000  -0.2500000), wk =   0.0937500
        k(    9) = (   0.6250000  -0.3750000   0.6250000), wk =   0.0937500
        k(   10) = (   0.5000000  -0.2500000   0.5000000), wk =   0.0937500
        k(   11) = (   0.3750000  -0.1250000   0.3750000), wk =   0.0937500
        k(   12) = (   0.2500000   0.0000000   0.2500000), wk =   0.0468750
        k(   13) = (   0.0000000   0.5000000   0.0000000), wk =   0.0234375
        k(   14) = (  -0.1250000   0.6250000  -0.1250000), wk =   0.0937500
        k(   15) = (   0.7500000  -0.2500000   0.7500000), wk =   0.0937500
        k(   16) = (   0.6250000  -0.1250000   0.6250000), wk =   0.0937500
        k(   17) = (   0.5000000   0.0000000   0.5000000), wk =   0.0468750
        k(   18) = (   0.0000000   0.7500000   0.0000000), wk =   0.0234375
        k(   19) = (   0.8750000  -0.1250000   0.8750000), wk =   0.0937500
        k(   20) = (   0.7500000   0.0000000   0.7500000), wk =   0.0468750
        k(   21) = (   0.0000000  -1.0000000   0.0000000), wk =   0.0117188
        k(   22) = (  -0.2500000   0.5000000   0.0000000), wk =   0.0937500
        k(   23) = (   0.6250000  -0.3750000   0.8750000), wk =   0.1875000
        k(   24) = (   0.5000000  -0.2500000   0.7500000), wk =   0.0937500
        k(   25) = (   0.7500000  -0.2500000   1.0000000), wk =   0.0937500
        k(   26) = (   0.6250000  -0.1250000   0.8750000), wk =   0.1875000
        k(   27) = (   0.5000000   0.0000000   0.7500000), wk =   0.0937500
        k(   28) = (  -0.2500000  -1.0000000   0.0000000), wk =   0.0468750
        k(   29) = (  -0.5000000  -1.0000000   0.0000000), wk =   0.0234375

     Dense  grid:    36325 G-vectors     FFT dimensions: (  48,  48,  48)

     Smooth grid:    12939 G-vectors     FFT dimensions: (  36,  36,  36)

     Estimated max dynamical RAM per process >     132.15 MB

     Initial potential from superposition of free atoms

     starting charge    7.99888, renormalised to    8.00000
     Starting wfcs are    8 randomized atomic wfcs

     total cpu time spent up to now is        2.0 secs

     Self-consistent Calculation

     iteration #  1     ecut=    50.00 Ry     beta= 0.70
     Davidson diagonalization with overlap
     ethr =  1.00E-02,  avg # of iterations =  2.0

     Threshold (ethr) on eigenvalues was too large:
     Diagonalizing with lowered threshold

     Davidson diagonalization with overlap
     ethr =  6.25E-04,  avg # of iterations =  1.5

     total cpu time spent up to now is        5.3 secs

     total energy              =     -22.83673137 Ry
     estimated scf accuracy    <       0.05415422 Ry

     iteration #  2     ecut=    50.00 Ry     beta= 0.70
     Davidson diagonalization with overlap
     ethr =  6.77E-04,  avg # of iterations =  1.0

     total cpu time spent up to now is        7.0 secs

     total energy              =     -22.83854617 Ry
     estimated scf accuracy    <       0.00286162 Ry

     iteration #  3     ecut=    50.00 Ry     beta= 0.70
     Davidson diagonalization with overlap
     ethr =  3.58E-05,  avg # of iterations =  2.6

     total cpu time spent up to now is        9.0 secs

     total energy              =     -22.83931517 Ry
     estimated scf accuracy    <       0.00010391 Ry

     iteration #  4     ecut=    50.00 Ry     beta= 0.70
     Davidson diagonalization with overlap
     ethr =  1.30E-06,  avg # of iterations =  3.9

     total cpu time spent up to now is       11.4 secs

     total energy              =     -22.83938687 Ry
     estimated scf accuracy    <       0.00001169 Ry

     iteration #  5     ecut=    50.00 Ry     beta= 0.70
     Davidson diagonalization with overlap
     ethr =  1.46E-07,  avg # of iterations =  3.7

     total cpu time spent up to now is       13.6 secs

     total energy              =     -22.83939268 Ry
     estimated scf accuracy    <       0.00000044 Ry

     iteration #  6     ecut=    50.00 Ry     beta= 0.70
     Davidson diagonalization with overlap
     ethr =  5.51E-09,  avg # of iterations =  4.9

     total cpu time spent up to now is       16.0 secs

     total energy              =     -22.83939301 Ry
     estimated scf accuracy    <       0.00000018 Ry

     iteration #  7     ecut=    50.00 Ry     beta= 0.70
     Davidson diagonalization with overlap
     ethr =  2.22E-09,  avg # of iterations =  2.4

     total cpu time spent up to now is       18.0 secs

     End of self-consistent calculation

          k = 0.0000 0.0000 0.0000 (  1639 PWs)   bands (ev):

    -5.7452   6.2423   6.2423   6.2423

          k =-0.1250 0.1250-0.1250 (  1594 PWs)   bands (ev):

    -5.5405   4.6413   5.9518   5.9518

          k =-0.2500 0.2500-0.2500 (  1603 PWs)   bands (ev):

    -4.9431   2.3068   5.4793   5.4793

          k =-0.3750 0.3750-0.3750 (  1607 PWs)   bands (ev):

    -4.0462   0.2804   5.1514   5.1514

          k = 0.5000-0.5000 0.5000 (  1622 PWs)   bands (ev):

    -3.4051  -0.7464   5.0392   5.0392

          k = 0.0000 0.2500 0.0000 (  1603 PWs)   bands (ev):

    -5.4715   4.9109   5.4314   5.4314

          k =-0.1250 0.3750-0.1250 (  1604 PWs)   bands (ev):

    -5.0015   3.0137   4.9177   4.9963

          k =-0.2500 0.5000-0.2500 (  1598 PWs)   bands (ev):

    -4.1838   0.9461   4.4031   4.6490

          k = 0.6250-0.3750 0.6250 (  1605 PWs)   bands (ev):

    -3.3186  -0.5232   3.9558   4.6739

          k = 0.5000-0.2500 0.5000 (  1614 PWs)   bands (ev):

    -3.5644  -0.1508   3.7729   4.9718

          k = 0.3750-0.1250 0.3750 (  1607 PWs)   bands (ev):

    -4.4912   1.6077   3.9232   5.4655

          k = 0.2500 0.0000 0.2500 (  1592 PWs)   bands (ev):

    -5.2033   3.5556   4.6063   5.9486

          k = 0.0000 0.5000 0.0000 (  1612 PWs)   bands (ev):

    -4.6601   2.7242   4.3443   4.3443

          k =-0.1250 0.6250-0.1250 (  1613 PWs)   bands (ev):

    -3.9479   1.2957   3.5612   4.0251

          k = 0.7500-0.2500 0.7500 (  1609 PWs)   bands (ev):

    -3.0183  -0.1523   2.6950   4.0284

          k = 0.6250-0.1250 0.6250 (  1599 PWs)   bands (ev):

    -2.8128  -0.4122   2.2345   4.3483

          k = 0.5000 0.0000 0.5000 (  1604 PWs)   bands (ev):

    -3.6950   0.7534   2.4745   4.9092

          k = 0.0000 0.7500 0.0000 (  1624 PWs)   bands (ev):

    -3.3437   0.4898   3.6253   3.6253

          k = 0.8750-0.1250 0.8750 (  1616 PWs)   bands (ev):

    -2.4434  -0.5984   2.7923   3.5489

          k = 0.7500 0.0000 0.7500 (  1608 PWs)   bands (ev):

    -2.0019  -0.9970   1.9222   3.8075

          k = 0.0000-1.0000 0.0000 (  1604 PWs)   bands (ev):

    -1.5883  -1.5883   3.3788   3.3788

          k =-0.2500 0.5000 0.0000 (  1598 PWs)   bands (ev):

    -4.4118   1.9477   3.5180   4.8091

          k = 0.6250-0.3750 0.8750 (  1609 PWs)   bands (ev):

    -3.5204   0.3900   2.9093   4.3050

          k = 0.5000-0.2500 0.7500 (  1614 PWs)   bands (ev):

    -2.8649  -0.5596   2.7809   4.0741

          k = 0.7500-0.2500 1.0000 (  1613 PWs)   bands (ev):

    -3.1442   0.2702   2.8665   3.4713

          k = 0.6250-0.1250 0.8750 (  1610 PWs)   bands (ev):

    -2.2658  -0.7012   2.1652   3.2698

          k = 0.5000 0.0000 0.7500 (  1604 PWs)   bands (ev):

    -2.6176  -0.3370   1.9975   3.6474

          k =-0.2500-1.0000 0.0000 (  1626 PWs)   bands (ev):

    -1.5096  -1.5096   2.8114   2.8114

          k =-0.5000-1.0000 0.0000 (  1604 PWs)   bands (ev):

    -1.4228  -1.4228   2.3731   2.3731

     highest occupied level (ev):     6.2423

!    total energy              =     -22.83939304 Ry
     estimated scf accuracy    <          3.9E-09 Ry

     The total energy is the sum of the following terms:
     one-electron contribution =       5.19358036 Ry
     hartree contribution      =       1.09813145 Ry
     xc contribution           =     -12.31378413 Ry
     ewald contribution        =     -16.81732072 Ry

     convergence has been achieved in   7 iterations

     Writing output data file ./tmp/silicon.save/

     init_run     :      1.67s CPU      1.79s WALL (       1 calls)
     electrons    :     14.51s CPU     15.99s WALL (       1 calls)

     Called by init_run:
     wfcinit      :      0.77s CPU      0.78s WALL (       1 calls)
     potinit      :      0.09s CPU      0.11s WALL (       1 calls)
     hinit0       :      0.61s CPU      0.62s WALL (       1 calls)

     Called by electrons:
     c_bands      :     10.20s CPU     10.27s WALL (       8 calls)
     sum_band     :      2.46s CPU      3.24s WALL (       8 calls)
     v_of_rho     :      0.68s CPU      0.77s WALL (       8 calls)
     newd         :      1.28s CPU      1.90s WALL (       8 calls)
     mix_rho      :      0.05s CPU      0.05s WALL (       8 calls)

     Called by c_bands:
     init_us_2    :      0.43s CPU      0.44s WALL (     493 calls)
     cegterg      :      7.77s CPU      7.83s WALL (     232 calls)

     Called by *egterg:
     cdiaghg      :      0.07s CPU      0.07s WALL (     842 calls)
     h_psi        :      6.89s CPU      6.94s WALL (     900 calls)
     s_psi        :      0.69s CPU      0.69s WALL (     900 calls)
     g_psi        :      0.07s CPU      0.07s WALL (     639 calls)

     Called by h_psi:
     h_psi:calbec :      0.69s CPU      0.69s WALL (     900 calls)
     vloc_psi     :      5.46s CPU      5.50s WALL (     900 calls)
     add_vuspsi   :      0.70s CPU      0.71s WALL (     900 calls)

     General routines
     calbec       :      0.87s CPU      0.88s WALL (    1132 calls)
     fft          :      0.26s CPU      0.26s WALL (     103 calls)
     ffts         :      0.03s CPU      0.03s WALL (      16 calls)
     fftw         :      5.42s CPU      5.46s WALL (    7126 calls)
     interpolate  :      0.04s CPU      0.04s WALL (       8 calls)

     Parallel routines

     PWSCF        :     16.39s CPU     18.03s WALL


   This run was terminated on:  15:27: 5  24Sep2026            

=------------------------------------------------------------------------------=
   JOB DONE.
=------------------------------------------------------------------------------=
