
     Program PWSCF v.6.7MaX starts on 24Sep2026 at 15:34:16 

     This program is part of the open-source Quantum ESPRESSO suite
     for quantum simulation of materials; please cite
         "P. Giannozzi et al., J. Phys.:Condens. Matter 21 395502 (2009);
         "P. Giannozzi et al., J. Phys.:Condens. Matter 29 465901 (2017);
          URL http://www.quantum-espresso.org", 
     in publications or presentations arising from this work. More details at
     http://www.quantum-espresso.org/quote

     Parallel version (MPI), running on     1 processors

     MPI processes distributed on     1 nodes
     Waiting for input...
     Reading input from standard input

     Current dimensions of program PWSCF are:
     Max number of different atomic species (ntypx) = 10
     Max number of k-points (npk) =  40000
     Max angular momentum in pseudopotentials (lmaxx) =  3

     Subspace diagonalization in iterative solution of the eigenvalue problem:
     a serial algorithm will be used


     G-vector sticks info
     --------------------
     sticks:   dense  smooth     PW     G-vecs:    dense   smooth      PW
     Sum        1507     745    235                38517    13635    2277



     bravais-lattice index     =            2
     lattice parameter (alat)  =      10.4500  a.u.
     unit-cell volume          =     285.2915 (a.u.)^3
     number of atoms/cell      =            2
     number of atomic types    =            1
     number of electrons       =         8.00
     number of Kohn-Sham states=            4
     kinetic-energy cutoff     =      50.0000  Ry
     charge density cutoff     =     400.0000  Ry
     scf convergence threshold =      1.0E-08
     mixing beta               =       0.7000
     number of iterations used =            8  plain     mixing
     Exchange-correlation= PBE
                           (   1   4   3   4   0   0   0)

     celldm(1)=  10.450000  celldm(2)=   0.000000  celldm(3)=   0.000000
     celldm(4)=   0.000000  celldm(5)=   0.000000  celldm(6)=   0.000000

     crystal axes: (cart. coord. in units of alat)
               a(1) = (  -0.500000   0.000000   0.500000 )  
               a(2) = (   0.000000   0.500000   0.500000 )  
               a(3) = (  -0.500000   0.500000   0.000000 )  

     reciprocal axes: (cart. coord. in units 2 pi/alat)
               b(1) = ( -1.000000 -1.000000  1.000000 )  
               b(2) = (  1.000000  1.000000  1.000000 )  
               b(3) = ( -1.000000  1.000000 -1.000000 )  


     PseudoPot. # 1 for Si read from file:
     /usr/share/espresso/pseudo/Si.pbe-n-rrkjus_psl.1.0.0.UPF
     MD5 check sum: 0b0bb1205258b0d07b9f9672cf965d36
     Pseudo is Ultrasoft + core correction, Zval =  4.0
     Generated using "atomic" code by A. Dal Corso  v.5.1
     Using radial grid of 1141 points,  6 beta functions with: 
                l(1) =   0
                l(2) =   0
                l(3) =   1
                l(4) =   1
                l(5) =   2
                l(6) =   2
     Q(r) pseudized with 0 coefficients 


     atomic species   valence    mass     pseudopotential
        Si             4.00    28.08550     Si( 1.00)

     48 Sym. Ops., with inversion, found (24 have fractional translation)



   Cartesian axes

     site n.     atom                  positions (alat units)
         1           Si  tau(   1) = (   0.0000000   0.0000000   0.0000000  )
         2           Si  tau(   2) = (  -0.2500000   0.2500000   0.2500000  )

     number of k points=    29
                       cart. coord. in units 2pi/alat
        k(    1) = (   0.0000000   0.0000000   0.0000000), wk =   0.0039062
        k(    2) = (  -0.1250000   0.1250000  -0.1250000), wk =   0.0312500
        k(    3) = (  -0.2500000   0.2500000  -0.2500000), wk =   0.0312500
        k(    4) = (  -0.3750000   0.3750000  -0.3750000), wk =   0.0312500
        k(    5) = (   0.5000000  -0.5000000   0.5000000), wk =   0.0156250
        k(    6) = (   0.0000000   0.2500000   0.0000000), wk =   0.0234375
        k(    7) = (  -0.1250000   0.3750000  -0.1250000), wk =   0.0937500
        k(    8) = (  -0.2500000   0.5000000  -0.2500000), wk =   0.0937500
        k(    9) = (   0.6250000  -0.3750000   0.6250000), wk =   0.0937500
        k(   10) = (   0.5000000  -0.2500000   0.5000000), wk =   0.0937500
        k(   11) = (   0.3750000  -0.1250000   0.3750000), wk =   0.0937500
        k(   12) = (   0.2500000   0.0000000   0.2500000), wk =   0.0468750
        k(   13) = (   0.0000000   0.5000000   0.0000000), wk =   0.0234375
        k(   14) = (  -0.1250000   0.6250000  -0.1250000), wk =   0.0937500
        k(   15) = (   0.7500000  -0.2500000   0.7500000), wk =   0.0937500
        k(   16) = (   0.6250000  -0.1250000   0.6250000), wk =   0.0937500
        k(   17) = (   0.5000000   0.0000000   0.5000000), wk =   0.0468750
        k(   18) = (   0.0000000   0.7500000   0.0000000), wk =   0.0234375
        k(   19) = (   0.8750000  -0.1250000   0.8750000), wk =   0.0937500
        k(   20) = (   0.7500000   0.0000000   0.7500000), wk =   0.0468750
        k(   21) = (   0.0000000  -1.0000000   0.0000000), wk =   0.0117188
        k(   22) = (  -0.2500000   0.5000000   0.0000000), wk =   0.0937500
        k(   23) = (   0.6250000  -0.3750000   0.8750000), wk =   0.1875000
        k(   24) = (   0.5000000  -0.2500000   0.7500000), wk =   0.0937500
        k(   25) = (   0.7500000  -0.2500000   1.0000000), wk =   0.0937500
        k(   26) = (   0.6250000  -0.1250000   0.8750000), wk =   0.1875000
        k(   27) = (   0.5000000   0.0000000   0.7500000), wk =   0.0937500
        k(   28) = (  -0.2500000  -1.0000000   0.0000000), wk =   0.0468750
        k(   29) = (  -0.5000000  -1.0000000   0.0000000), wk =   0.0234375

     Dense  grid:    38517 G-vectors     FFT dimensions: (  48,  48,  48)

     Smooth grid:    13635 G-vectors     FFT dimensions: (  36,  36,  36)

     Estimated max dynamical RAM per process >     139.57 MB

     Initial potential from superposition of free atoms

     starting charge    7.99888, renormalised to    8.00000
     Starting wfcs are    8 randomized atomic wfcs

     total cpu time spent up to now is        1.4 secs

     Self-consistent Calculation

     iteration #  1     ecut=    50.00 Ry     beta= 0.70
     Davidson diagonalization with overlap
     ethr =  1.00E-02,  avg # of iterations =  2.0

     Threshold (ethr) on eigenvalues was too large:
     Diagonalizing with lowered threshold

     Davidson diagonalization with overlap
     ethr =  5.68E-04,  avg # of iterations =  1.6

     total cpu time spent up to now is        3.8 secs

     total energy              =     -22.83685435 Ry
     estimated scf accuracy    <       0.04913372 Ry

     iteration #  2     ecut=    50.00 Ry     beta= 0.70
     Davidson diagonalization with overlap
     ethr =  6.14E-04,  avg # of iterations =  1.0

     total cpu time spent up to now is        5.1 secs

     total energy              =     -22.83831773 Ry
     estimated scf accuracy    <       0.00282300 Ry

     iteration #  3     ecut=    50.00 Ry     beta= 0.70
     Davidson diagonalization with overlap
     ethr =  3.53E-05,  avg # of iterations =  2.5

     total cpu time spent up to now is        6.6 secs

     total energy              =     -22.83897520 Ry
     estimated scf accuracy    <       0.00009027 Ry

     iteration #  4     ecut=    50.00 Ry     beta= 0.70
     Davidson diagonalization with overlap
     ethr =  1.13E-06,  avg # of iterations =  4.4

     total cpu time spent up to now is        8.3 secs

     total energy              =     -22.83904317 Ry
     estimated scf accuracy    <       0.00001208 Ry

     iteration #  5     ecut=    50.00 Ry     beta= 0.70
     Davidson diagonalization with overlap
     ethr =  1.51E-07,  avg # of iterations =  3.3

     total cpu time spent up to now is       10.0 secs

     total energy              =     -22.83904724 Ry
     estimated scf accuracy    <       0.00000016 Ry

     iteration #  6     ecut=    50.00 Ry     beta= 0.70
     Davidson diagonalization with overlap
     ethr =  2.02E-09,  avg # of iterations =  6.1

     total cpu time spent up to now is       12.0 secs

     total energy              =     -22.83904754 Ry
     estimated scf accuracy    <       0.00000012 Ry

     iteration #  7     ecut=    50.00 Ry     beta= 0.70
     Davidson diagonalization with overlap
     ethr =  1.50E-09,  avg # of iterations =  2.1

     total cpu time spent up to now is       13.4 secs

     End of self-consistent calculation

          k = 0.0000 0.0000 0.0000 (  1687 PWs)   bands (ev):

    -5.9471   5.6496   5.6496   5.6496

          k =-0.1250 0.1250-0.1250 (  1720 PWs)   bands (ev):

    -5.7524   4.0620   5.3759   5.3759

          k =-0.2500 0.2500-0.2500 (  1700 PWs)   bands (ev):

    -5.1857   1.8153   4.9240   4.9240

          k =-0.3750 0.3750-0.3750 (  1700 PWs)   bands (ev):

    -4.3412  -0.1143   4.6070   4.6070

          k = 0.5000-0.5000 0.5000 (  1694 PWs)   bands (ev):

    -3.7503  -1.0751   4.4980   4.4980

          k = 0.0000 0.2500 0.0000 (  1720 PWs)   bands (ev):

    -5.6868   4.2594   4.8911   4.8911

          k =-0.1250 0.3750-0.1250 (  1705 PWs)   bands (ev):

    -5.2403   2.4606   4.4019   4.4472

          k =-0.2500 0.5000-0.2500 (  1689 PWs)   bands (ev):

    -4.4675   0.4984   3.8754   4.1413

          k = 0.6250-0.3750 0.6250 (  1709 PWs)   bands (ev):

    -3.6631  -0.8814   3.4510   4.1593

          k = 0.5000-0.2500 0.5000 (  1708 PWs)   bands (ev):

    -3.8893  -0.5345   3.2858   4.4380

          k = 0.3750-0.1250 0.3750 (  1703 PWs)   bands (ev):

    -4.7576   1.1247   3.4457   4.9043

          k = 0.2500 0.0000 0.2500 (  1727 PWs)   bands (ev):

    -5.4321   2.9789   4.1163   5.3630

          k = 0.0000 0.5000 0.0000 (  1716 PWs)   bands (ev):

    -4.9154   2.1185   3.8589   3.8589

          k =-0.1250 0.6250-0.1250 (  1700 PWs)   bands (ev):

    -4.2401   0.7625   3.1152   3.5531

          k = 0.7500-0.2500 0.7500 (  1703 PWs)   bands (ev):

    -3.3680  -0.5943   2.2910   3.5531

          k = 0.6250-0.1250 0.6250 (  1712 PWs)   bands (ev):

    -3.1815  -0.8316   1.8606   3.8537

          k = 0.5000 0.0000 0.5000 (  1696 PWs)   bands (ev):

    -4.0055   0.2621   2.1019   4.3819

          k = 0.0000 0.7500 0.0000 (  1700 PWs)   bands (ev):

    -3.6647  -0.0222   3.1728   3.1728

          k = 0.8750-0.1250 0.8750 (  1703 PWs)   bands (ev):

    -2.8135  -1.0600   2.4030   3.0989

          k = 0.7500 0.0000 0.7500 (  1710 PWs)   bands (ev):

    -2.4136  -1.4279   1.5969   3.3432

          k = 0.0000-1.0000 0.0000 (  1724 PWs)   bands (ev):

    -1.9981  -1.9981   2.9373   2.9373

          k =-0.2500 0.5000 0.0000 (  1696 PWs)   bands (ev):

    -4.6811   1.4030   3.0849   4.2870

          k = 0.6250-0.3750 0.8750 (  1706 PWs)   bands (ev):

    -3.8410  -0.0673   2.4873   3.8203

          k = 0.5000-0.2500 0.7500 (  1704 PWs)   bands (ev):

    -3.2346  -0.9480   2.3522   3.6071

          k = 0.7500-0.2500 1.0000 (  1693 PWs)   bands (ev):

    -3.4796  -0.2317   2.4689   3.0438

          k = 0.6250-0.1250 0.8750 (  1700 PWs)   bands (ev):

    -2.6586  -1.1503   1.8161   2.8551

          k = 0.5000 0.0000 0.7500 (  1702 PWs)   bands (ev):

    -2.9915  -0.8008   1.6605   3.2078

          k =-0.2500-1.0000 0.0000 (  1694 PWs)   bands (ev):

    -1.9307  -1.9307   2.4219   2.4219

          k =-0.5000-1.0000 0.0000 (  1708 PWs)   bands (ev):

    -1.8573  -1.8573   2.0215   2.0215

     highest occupied level (ev):     5.6496

!    total energy              =     -22.83904756 Ry
     estimated scf accuracy    <          6.8E-09 Ry

     The total energy is the sum of the following terms:
     one-electron contribution =       4.75086473 Ry
     hartree contribution      =       1.14976762 Ry
     xc contribution           =     -12.24422178 Ry
     ewald contribution        =     -16.49545813 Ry

     convergence has been achieved in   7 iterations

     Writing output data file ./tmp/silicon.save/

     init_run     :      1.14s CPU      1.25s WALL (       1 calls)
     electrons    :     10.79s CPU     12.05s WALL (       1 calls)

     Called by init_run:
     wfcinit      :      0.49s CPU      0.50s WALL (       1 calls)
     potinit      :      0.08s CPU      0.10s WALL (       1 calls)
     hinit0       :      0.43s CPU      0.43s WALL (       1 calls)

     Called by electrons:
     c_bands      :      7.51s CPU      7.54s WALL (       8 calls)
     sum_band     :      1.93s CPU      2.63s WALL (       8 calls)
     v_of_rho     :      0.49s CPU      0.57s WALL (       8 calls)
     newd         :      0.95s CPU      1.50s WALL (       8 calls)
     mix_rho      :      0.04s CPU      0.04s WALL (       8 calls)

     Called by c_bands:
     init_us_2    :      0.33s CPU      0.34s WALL (     493 calls)
     cegterg      :      5.70s CPU      5.73s WALL (     232 calls)

     Called by *egterg:
     cdiaghg      :      0.05s CPU      0.05s WALL (     871 calls)
     h_psi        :      4.93s CPU      4.96s WALL (     929 calls)
     s_psi        :      0.53s CPU      0.53s WALL (     929 calls)
     g_psi        :      0.06s CPU      0.06s WALL (     668 calls)

     Called by h_psi:
     h_psi:calbec :      0.52s CPU      0.53s WALL (     929 calls)
     vloc_psi     :      3.85s CPU      3.87s WALL (     929 calls)
     add_vuspsi   :      0.52s CPU      0.53s WALL (     929 calls)

     General routines
     calbec       :      0.67s CPU      0.68s WALL (    1161 calls)
     fft          :      0.20s CPU      0.20s WALL (     103 calls)
     ffts         :      0.02s CPU      0.02s WALL (      16 calls)
     fftw         :      3.85s CPU      3.87s WALL (    7266 calls)
     interpolate  :      0.03s CPU      0.03s WALL (       8 calls)

     Parallel routines

     PWSCF        :     12.06s CPU     13.43s WALL


   This run was terminated on:  15:34:30  24Sep2026            

=------------------------------------------------------------------------------=
   JOB DONE.
=------------------------------------------------------------------------------=
