
     Program PWSCF v.6.7MaX starts on 21Sep2026 at  0: 7: 6 

     This program is part of the open-source Quantum ESPRESSO suite
     for quantum simulation of materials; please cite
         "P. Giannozzi et al., J. Phys.:Condens. Matter 21 395502 (2009);
         "P. Giannozzi et al., J. Phys.:Condens. Matter 29 465901 (2017);
          URL http://www.quantum-espresso.org", 
     in publications or presentations arising from this work. More details at
     http://www.quantum-espresso.org/quote

     Parallel version (MPI), running on     1 processors

     MPI processes distributed on     1 nodes
     Waiting for input...
     Reading input from standard input

     Current dimensions of program PWSCF are:
     Max number of different atomic species (ntypx) = 10
     Max number of k-points (npk) =  40000
     Max angular momentum in pseudopotentials (lmaxx) =  3

     Subspace diagonalization in iterative solution of the eigenvalue problem:
     a serial algorithm will be used


     G-vector sticks info
     --------------------
     sticks:   dense  smooth     PW     G-vecs:    dense   smooth      PW
     Sum         823     421    127                15593     5577     965



     bravais-lattice index     =            2
     lattice parameter (alat)  =      10.0000  a.u.
     unit-cell volume          =     250.0000 (a.u.)^3
     number of atoms/cell      =            2
     number of atomic types    =            1
     number of electrons       =         8.00
     number of Kohn-Sham states=            4
     kinetic-energy cutoff     =      30.0000  Ry
     charge density cutoff     =     240.0000  Ry
     scf convergence threshold =      1.0E-08
     mixing beta               =       0.7000
     number of iterations used =            8  plain     mixing
     Exchange-correlation= PBE
                           (   1   4   3   4   0   0   0)

     celldm(1)=  10.000000  celldm(2)=   0.000000  celldm(3)=   0.000000
     celldm(4)=   0.000000  celldm(5)=   0.000000  celldm(6)=   0.000000

     crystal axes: (cart. coord. in units of alat)
               a(1) = (  -0.500000   0.000000   0.500000 )  
               a(2) = (   0.000000   0.500000   0.500000 )  
               a(3) = (  -0.500000   0.500000   0.000000 )  

     reciprocal axes: (cart. coord. in units 2 pi/alat)
               b(1) = ( -1.000000 -1.000000  1.000000 )  
               b(2) = (  1.000000  1.000000  1.000000 )  
               b(3) = ( -1.000000  1.000000 -1.000000 )  


     PseudoPot. # 1 for Si read from file:
     /usr/share/espresso/pseudo/Si.pbe-n-rrkjus_psl.1.0.0.UPF
     MD5 check sum: 0b0bb1205258b0d07b9f9672cf965d36
     Pseudo is Ultrasoft + core correction, Zval =  4.0
     Generated using "atomic" code by A. Dal Corso  v.5.1
     Using radial grid of 1141 points,  6 beta functions with: 
                l(1) =   0
                l(2) =   0
                l(3) =   1
                l(4) =   1
                l(5) =   2
                l(6) =   2
     Q(r) pseudized with 0 coefficients 


     atomic species   valence    mass     pseudopotential
        Si             4.00    28.08550     Si( 1.00)

     48 Sym. Ops., with inversion, found (24 have fractional translation)



   Cartesian axes

     site n.     atom                  positions (alat units)
         1           Si  tau(   1) = (   0.0000000   0.0000000   0.0000000  )
         2           Si  tau(   2) = (  -0.2500000   0.2500000   0.2500000  )

     number of k points=     8
                       cart. coord. in units 2pi/alat
        k(    1) = (   0.0000000   0.0000000   0.0000000), wk =   0.0312500
        k(    2) = (  -0.2500000   0.2500000  -0.2500000), wk =   0.2500000
        k(    3) = (   0.5000000  -0.5000000   0.5000000), wk =   0.1250000
        k(    4) = (   0.0000000   0.5000000   0.0000000), wk =   0.1875000
        k(    5) = (   0.7500000  -0.2500000   0.7500000), wk =   0.7500000
        k(    6) = (   0.5000000   0.0000000   0.5000000), wk =   0.3750000
        k(    7) = (   0.0000000  -1.0000000   0.0000000), wk =   0.0937500
        k(    8) = (  -0.5000000  -1.0000000   0.0000000), wk =   0.1875000

     Dense  grid:    15593 G-vectors     FFT dimensions: (  36,  36,  36)

     Smooth grid:     5577 G-vectors     FFT dimensions: (  32,  32,  32)

     Estimated max dynamical RAM per process >      56.35 MB

     Initial potential from superposition of free atoms

     starting charge    7.99888, renormalised to    8.00000
     Starting wfcs are    8 randomized atomic wfcs

     total cpu time spent up to now is        1.1 secs

     Self-consistent Calculation

     iteration #  1     ecut=    30.00 Ry     beta= 0.70
     Davidson diagonalization with overlap
     ethr =  1.00E-02,  avg # of iterations =  2.0

     Threshold (ethr) on eigenvalues was too large:
     Diagonalizing with lowered threshold

     Davidson diagonalization with overlap
     ethr =  7.80E-04,  avg # of iterations =  1.4

     total cpu time spent up to now is        1.8 secs

     total energy              =     -22.81281083 Ry
     estimated scf accuracy    <       0.06738266 Ry

     iteration #  2     ecut=    30.00 Ry     beta= 0.70
     Davidson diagonalization with overlap
     ethr =  8.42E-04,  avg # of iterations =  1.0

     total cpu time spent up to now is        2.2 secs

     total energy              =     -22.81527959 Ry
     estimated scf accuracy    <       0.00322496 Ry

     iteration #  3     ecut=    30.00 Ry     beta= 0.70
     Davidson diagonalization with overlap
     ethr =  4.03E-05,  avg # of iterations =  2.8

     total cpu time spent up to now is        2.6 secs

     total energy              =     -22.81620370 Ry
     estimated scf accuracy    <       0.00013352 Ry

     iteration #  4     ecut=    30.00 Ry     beta= 0.70
     Davidson diagonalization with overlap
     ethr =  1.67E-06,  avg # of iterations =  4.0

     total cpu time spent up to now is        3.0 secs

     total energy              =     -22.81627151 Ry
     estimated scf accuracy    <       0.00001935 Ry

     iteration #  5     ecut=    30.00 Ry     beta= 0.70
     Davidson diagonalization with overlap
     ethr =  2.42E-07,  avg # of iterations =  2.9

     total cpu time spent up to now is        3.5 secs

     total energy              =     -22.81627788 Ry
     estimated scf accuracy    <       0.00000078 Ry

     iteration #  6     ecut=    30.00 Ry     beta= 0.70
     Davidson diagonalization with overlap
     ethr =  9.73E-09,  avg # of iterations =  4.5

     total cpu time spent up to now is        4.0 secs

     total energy              =     -22.81627837 Ry
     estimated scf accuracy    <       0.00000019 Ry

     iteration #  7     ecut=    30.00 Ry     beta= 0.70
     Davidson diagonalization with overlap
     ethr =  2.38E-09,  avg # of iterations =  2.6

     total cpu time spent up to now is        4.5 secs

     total energy              =     -22.81627842 Ry
     estimated scf accuracy    <       0.00000003 Ry

     iteration #  8     ecut=    30.00 Ry     beta= 0.70
     Davidson diagonalization with overlap
     ethr =  3.74E-10,  avg # of iterations =  2.8

     total cpu time spent up to now is        4.8 secs

     End of self-consistent calculation

          k = 0.0000 0.0000 0.0000 (   701 PWs)   bands (ev):

    -5.4357   7.0914   7.0914   7.0914

          k =-0.2500 0.2500-0.2500 (   691 PWs)   bands (ev):

    -4.5788   2.9960   6.2753   6.2753

          k = 0.5000-0.5000 0.5000 (   700 PWs)   bands (ev):

    -2.8969  -0.2799   5.8174   5.8174

          k = 0.0000 0.5000 0.0000 (   681 PWs)   bands (ev):

    -4.2789   3.5781   5.0402   5.0402

          k = 0.7500-0.2500 0.7500 (   697 PWs)   bands (ev):

    -2.5078   0.4729   3.2822   4.7114

          k = 0.5000 0.0000 0.5000 (   688 PWs)   bands (ev):

    -3.2383   1.4491   3.0135   5.6658

          k = 0.0000-1.0000 0.0000 (   692 PWs)   bands (ev):

    -0.9984  -0.9984   4.0151   4.0151

          k =-0.5000-1.0000 0.0000 (   700 PWs)   bands (ev):

    -0.7948  -0.7948   2.8781   2.8781

     highest occupied level (ev):     7.0914

!    total energy              =     -22.81627843 Ry
     estimated scf accuracy    <          5.2E-09 Ry

     The total energy is the sum of the following terms:
     one-electron contribution =       5.78294028 Ry
     hartree contribution      =       1.05743330 Ry
     xc contribution           =     -12.41889827 Ry
     ewald contribution        =     -17.23775375 Ry

     convergence has been achieved in   8 iterations

     Writing output data file ./tmp/silicon.save/

     init_run     :      0.74s CPU      0.95s WALL (       1 calls)
     electrons    :      2.98s CPU      3.75s WALL (       1 calls)

     Called by init_run:
     wfcinit      :      0.13s CPU      0.13s WALL (       1 calls)
     potinit      :      0.08s CPU      0.13s WALL (       1 calls)
     hinit0       :      0.40s CPU      0.40s WALL (       1 calls)

     Called by electrons:
     c_bands      :      1.30s CPU      1.32s WALL (       9 calls)
     sum_band     :      0.75s CPU      1.16s WALL (       9 calls)
     v_of_rho     :      0.38s CPU      0.43s WALL (       9 calls)
     newd         :      0.66s CPU      1.09s WALL (       9 calls)
     mix_rho      :      0.03s CPU      0.03s WALL (       9 calls)

     Called by c_bands:
     init_us_2    :      0.06s CPU      0.06s WALL (     152 calls)
     cegterg      :      0.96s CPU      0.98s WALL (      72 calls)

     Called by *egterg:
     cdiaghg      :      0.02s CPU      0.02s WALL (     255 calls)
     h_psi        :      0.85s CPU      0.86s WALL (     271 calls)
     s_psi        :      0.10s CPU      0.10s WALL (     271 calls)
     g_psi        :      0.01s CPU      0.01s WALL (     191 calls)

     Called by h_psi:
     h_psi:calbec :      0.09s CPU      0.10s WALL (     271 calls)
     vloc_psi     :      0.64s CPU      0.66s WALL (     271 calls)
     add_vuspsi   :      0.10s CPU      0.10s WALL (     271 calls)

     General routines
     calbec       :      0.11s CPU      0.12s WALL (     343 calls)
     fft          :      0.18s CPU      0.18s WALL (     116 calls)
     ffts         :      0.01s CPU      0.01s WALL (      18 calls)
     fftw         :      0.56s CPU      0.57s WALL (    2128 calls)
     interpolate  :      0.02s CPU      0.02s WALL (       9 calls)

     Parallel routines

     PWSCF        :      3.89s CPU      4.93s WALL


   This run was terminated on:   0: 7:11  21Sep2026            

=------------------------------------------------------------------------------=
   JOB DONE.
=------------------------------------------------------------------------------=
