
     Program PWSCF v.6.7MaX starts on 21Sep2026 at  0:33:28 

     This program is part of the open-source Quantum ESPRESSO suite
     for quantum simulation of materials; please cite
         "P. Giannozzi et al., J. Phys.:Condens. Matter 21 395502 (2009);
         "P. Giannozzi et al., J. Phys.:Condens. Matter 29 465901 (2017);
          URL http://www.quantum-espresso.org", 
     in publications or presentations arising from this work. More details at
     http://www.quantum-espresso.org/quote

     Parallel version (MPI), running on     1 processors

     MPI processes distributed on     1 nodes
     Waiting for input...
     Reading input from standard input

     Current dimensions of program PWSCF are:
     Max number of different atomic species (ntypx) = 10
     Max number of k-points (npk) =  40000
     Max angular momentum in pseudopotentials (lmaxx) =  3

     Subspace diagonalization in iterative solution of the eigenvalue problem:
     a serial algorithm will be used


     G-vector sticks info
     --------------------
     sticks:   dense  smooth     PW     G-vecs:    dense   smooth      PW
     Sum         859     433    139                16865     5961    1067



     bravais-lattice index     =            2
     lattice parameter (alat)  =      10.2500  a.u.
     unit-cell volume          =     269.2227 (a.u.)^3
     number of atoms/cell      =            2
     number of atomic types    =            1
     number of electrons       =         8.00
     number of Kohn-Sham states=            4
     kinetic-energy cutoff     =      30.0000  Ry
     charge density cutoff     =     240.0000  Ry
     scf convergence threshold =      1.0E-08
     mixing beta               =       0.7000
     number of iterations used =            8  plain     mixing
     Exchange-correlation= PBE
                           (   1   4   3   4   0   0   0)

     celldm(1)=  10.250000  celldm(2)=   0.000000  celldm(3)=   0.000000
     celldm(4)=   0.000000  celldm(5)=   0.000000  celldm(6)=   0.000000

     crystal axes: (cart. coord. in units of alat)
               a(1) = (  -0.500000   0.000000   0.500000 )  
               a(2) = (   0.000000   0.500000   0.500000 )  
               a(3) = (  -0.500000   0.500000   0.000000 )  

     reciprocal axes: (cart. coord. in units 2 pi/alat)
               b(1) = ( -1.000000 -1.000000  1.000000 )  
               b(2) = (  1.000000  1.000000  1.000000 )  
               b(3) = ( -1.000000  1.000000 -1.000000 )  


     PseudoPot. # 1 for Si read from file:
     /usr/share/espresso/pseudo/Si.pbe-n-rrkjus_psl.1.0.0.UPF
     MD5 check sum: 0b0bb1205258b0d07b9f9672cf965d36
     Pseudo is Ultrasoft + core correction, Zval =  4.0
     Generated using "atomic" code by A. Dal Corso  v.5.1
     Using radial grid of 1141 points,  6 beta functions with: 
                l(1) =   0
                l(2) =   0
                l(3) =   1
                l(4) =   1
                l(5) =   2
                l(6) =   2
     Q(r) pseudized with 0 coefficients 


     atomic species   valence    mass     pseudopotential
        Si             4.00    28.08550     Si( 1.00)

     48 Sym. Ops., with inversion, found (24 have fractional translation)



   Cartesian axes

     site n.     atom                  positions (alat units)
         1           Si  tau(   1) = (   0.0000000   0.0000000   0.0000000  )
         2           Si  tau(   2) = (  -0.2500000   0.2500000   0.2500000  )

     number of k points=     8
                       cart. coord. in units 2pi/alat
        k(    1) = (   0.0000000   0.0000000   0.0000000), wk =   0.0312500
        k(    2) = (  -0.2500000   0.2500000  -0.2500000), wk =   0.2500000
        k(    3) = (   0.5000000  -0.5000000   0.5000000), wk =   0.1250000
        k(    4) = (   0.0000000   0.5000000   0.0000000), wk =   0.1875000
        k(    5) = (   0.7500000  -0.2500000   0.7500000), wk =   0.7500000
        k(    6) = (   0.5000000   0.0000000   0.5000000), wk =   0.3750000
        k(    7) = (   0.0000000  -1.0000000   0.0000000), wk =   0.0937500
        k(    8) = (  -0.5000000  -1.0000000   0.0000000), wk =   0.1875000

     Dense  grid:    16865 G-vectors     FFT dimensions: (  36,  36,  36)

     Smooth grid:     5961 G-vectors     FFT dimensions: (  32,  32,  32)

     Estimated max dynamical RAM per process >      60.58 MB

     Initial potential from superposition of free atoms

     starting charge    7.99888, renormalised to    8.00000
     Starting wfcs are    8 randomized atomic wfcs

     total cpu time spent up to now is        1.0 secs

     Self-consistent Calculation

     iteration #  1     ecut=    30.00 Ry     beta= 0.70
     Davidson diagonalization with overlap
     ethr =  1.00E-02,  avg # of iterations =  2.0

     Threshold (ethr) on eigenvalues was too large:
     Diagonalizing with lowered threshold

     Davidson diagonalization with overlap
     ethr =  6.90E-04,  avg # of iterations =  1.5

     total cpu time spent up to now is        1.6 secs

     total energy              =     -22.82280042 Ry
     estimated scf accuracy    <       0.05978291 Ry

     iteration #  2     ecut=    30.00 Ry     beta= 0.70
     Davidson diagonalization with overlap
     ethr =  7.47E-04,  avg # of iterations =  1.0

     total cpu time spent up to now is        2.1 secs

     total energy              =     -22.82474748 Ry
     estimated scf accuracy    <       0.00318926 Ry

     iteration #  3     ecut=    30.00 Ry     beta= 0.70
     Davidson diagonalization with overlap
     ethr =  3.99E-05,  avg # of iterations =  3.1

     total cpu time spent up to now is        2.5 secs

     total energy              =     -22.82553301 Ry
     estimated scf accuracy    <       0.00012784 Ry

     iteration #  4     ecut=    30.00 Ry     beta= 0.70
     Davidson diagonalization with overlap
     ethr =  1.60E-06,  avg # of iterations =  3.0

     total cpu time spent up to now is        3.0 secs

     total energy              =     -22.82558030 Ry
     estimated scf accuracy    <       0.00003804 Ry

     iteration #  5     ecut=    30.00 Ry     beta= 0.70
     Davidson diagonalization with overlap
     ethr =  4.75E-07,  avg # of iterations =  2.4

     total cpu time spent up to now is        3.4 secs

     total energy              =     -22.82558860 Ry
     estimated scf accuracy    <       0.00000046 Ry

     iteration #  6     ecut=    30.00 Ry     beta= 0.70
     Davidson diagonalization with overlap
     ethr =  5.73E-09,  avg # of iterations =  6.4

     total cpu time spent up to now is        4.0 secs

     End of self-consistent calculation

          k = 0.0000 0.0000 0.0000 (   725 PWs)   bands (ev):

    -5.7114   6.2847   6.2847   6.2847

          k =-0.2500 0.2500-0.2500 (   754 PWs)   bands (ev):

    -4.9087   2.3425   5.5180   5.5180

          k = 0.5000-0.5000 0.5000 (   754 PWs)   bands (ev):

    -3.3683  -0.7145   5.0771   5.0771

          k = 0.0000 0.5000 0.0000 (   729 PWs)   bands (ev):

    -4.6255   2.7653   4.3785   4.3785

          k = 0.7500-0.2500 0.7500 (   748 PWs)   bands (ev):

    -2.9819  -0.1158   2.7263   4.0624

          k = 0.5000 0.0000 0.5000 (   754 PWs)   bands (ev):

    -3.6593   0.7910   2.5043   4.9460

          k = 0.0000-1.0000 0.0000 (   740 PWs)   bands (ev):

    -1.5512  -1.5512   3.4113   3.4113

          k =-0.5000-1.0000 0.0000 (   744 PWs)   bands (ev):

    -1.3848  -1.3848   2.4020   2.4020

     highest occupied level (ev):     6.2847

!    total energy              =     -22.82558989 Ry
     estimated scf accuracy    <          2.4E-10 Ry

     The total energy is the sum of the following terms:
     one-electron contribution =       5.19550005 Ry
     hartree contribution      =       1.12133723 Ry
     xc contribution           =     -12.32510644 Ry
     ewald contribution        =     -16.81732073 Ry

     convergence has been achieved in   6 iterations

     Writing output data file ./tmp/silicon.save/

     init_run     :      0.73s CPU      0.78s WALL (       1 calls)
     electrons    :      2.40s CPU      3.03s WALL (       1 calls)

     Called by init_run:
     wfcinit      :      0.08s CPU      0.09s WALL (       1 calls)
     potinit      :      0.06s CPU      0.06s WALL (       1 calls)
     hinit0       :      0.49s CPU      0.49s WALL (       1 calls)

     Called by electrons:
     c_bands      :      1.05s CPU      1.07s WALL (       7 calls)
     sum_band     :      0.65s CPU      0.99s WALL (       7 calls)
     v_of_rho     :      0.27s CPU      0.30s WALL (       7 calls)
     newd         :      0.50s CPU      0.75s WALL (       7 calls)
     mix_rho      :      0.02s CPU      0.02s WALL (       7 calls)

     Called by c_bands:
     init_us_2    :      0.05s CPU      0.05s WALL (     120 calls)
     cegterg      :      0.79s CPU      0.81s WALL (      56 calls)

     Called by *egterg:
     cdiaghg      :      0.01s CPU      0.01s WALL (     203 calls)
     h_psi        :      0.68s CPU      0.69s WALL (     219 calls)
     s_psi        :      0.08s CPU      0.08s WALL (     219 calls)
     g_psi        :      0.01s CPU      0.01s WALL (     155 calls)

     Called by h_psi:
     h_psi:calbec :      0.08s CPU      0.08s WALL (     219 calls)
     vloc_psi     :      0.51s CPU      0.53s WALL (     219 calls)
     add_vuspsi   :      0.08s CPU      0.08s WALL (     219 calls)

     General routines
     calbec       :      0.10s CPU      0.10s WALL (     275 calls)
     fft          :      0.13s CPU      0.14s WALL (      90 calls)
     ffts         :      0.01s CPU      0.01s WALL (      14 calls)
     fftw         :      0.46s CPU      0.47s WALL (    1724 calls)
     interpolate  :      0.02s CPU      0.02s WALL (       7 calls)

     Parallel routines

     PWSCF        :      3.37s CPU      4.08s WALL


   This run was terminated on:   0:33:32  21Sep2026            

=------------------------------------------------------------------------------=
   JOB DONE.
=------------------------------------------------------------------------------=
