
     Program PWSCF v.6.7MaX starts on 21Sep2026 at  0:50: 0 

     This program is part of the open-source Quantum ESPRESSO suite
     for quantum simulation of materials; please cite
         "P. Giannozzi et al., J. Phys.:Condens. Matter 21 395502 (2009);
         "P. Giannozzi et al., J. Phys.:Condens. Matter 29 465901 (2017);
          URL http://www.quantum-espresso.org", 
     in publications or presentations arising from this work. More details at
     http://www.quantum-espresso.org/quote

     Parallel version (MPI), running on     1 processors

     MPI processes distributed on     1 nodes
     Waiting for input...
     Reading input from standard input

     Current dimensions of program PWSCF are:
     Max number of different atomic species (ntypx) = 10
     Max number of k-points (npk) =  40000
     Max angular momentum in pseudopotentials (lmaxx) =  3

     Subspace diagonalization in iterative solution of the eigenvalue problem:
     a serial algorithm will be used


     G-vector sticks info
     --------------------
     sticks:   dense  smooth     PW     G-vecs:    dense   smooth      PW
     Sum         889     439    139                17573     6231    1067



     bravais-lattice index     =            2
     lattice parameter (alat)  =      10.4000  a.u.
     unit-cell volume          =     281.2160 (a.u.)^3
     number of atoms/cell      =            2
     number of atomic types    =            1
     number of electrons       =         8.00
     number of Kohn-Sham states=            4
     kinetic-energy cutoff     =      30.0000  Ry
     charge density cutoff     =     240.0000  Ry
     scf convergence threshold =      1.0E-08
     mixing beta               =       0.7000
     number of iterations used =            8  plain     mixing
     Exchange-correlation= PBE
                           (   1   4   3   4   0   0   0)

     celldm(1)=  10.400000  celldm(2)=   0.000000  celldm(3)=   0.000000
     celldm(4)=   0.000000  celldm(5)=   0.000000  celldm(6)=   0.000000

     crystal axes: (cart. coord. in units of alat)
               a(1) = (  -0.500000   0.000000   0.500000 )  
               a(2) = (   0.000000   0.500000   0.500000 )  
               a(3) = (  -0.500000   0.500000   0.000000 )  

     reciprocal axes: (cart. coord. in units 2 pi/alat)
               b(1) = ( -1.000000 -1.000000  1.000000 )  
               b(2) = (  1.000000  1.000000  1.000000 )  
               b(3) = ( -1.000000  1.000000 -1.000000 )  


     PseudoPot. # 1 for Si read from file:
     /usr/share/espresso/pseudo/Si.pbe-n-rrkjus_psl.1.0.0.UPF
     MD5 check sum: 0b0bb1205258b0d07b9f9672cf965d36
     Pseudo is Ultrasoft + core correction, Zval =  4.0
     Generated using "atomic" code by A. Dal Corso  v.5.1
     Using radial grid of 1141 points,  6 beta functions with: 
                l(1) =   0
                l(2) =   0
                l(3) =   1
                l(4) =   1
                l(5) =   2
                l(6) =   2
     Q(r) pseudized with 0 coefficients 


     atomic species   valence    mass     pseudopotential
        Si             4.00    28.08550     Si( 1.00)

     48 Sym. Ops., with inversion, found (24 have fractional translation)



   Cartesian axes

     site n.     atom                  positions (alat units)
         1           Si  tau(   1) = (   0.0000000   0.0000000   0.0000000  )
         2           Si  tau(   2) = (  -0.2500000   0.2500000   0.2500000  )

     number of k points=     8
                       cart. coord. in units 2pi/alat
        k(    1) = (   0.0000000   0.0000000   0.0000000), wk =   0.0312500
        k(    2) = (  -0.2500000   0.2500000  -0.2500000), wk =   0.2500000
        k(    3) = (   0.5000000  -0.5000000   0.5000000), wk =   0.1250000
        k(    4) = (   0.0000000   0.5000000   0.0000000), wk =   0.1875000
        k(    5) = (   0.7500000  -0.2500000   0.7500000), wk =   0.7500000
        k(    6) = (   0.5000000   0.0000000   0.5000000), wk =   0.3750000
        k(    7) = (   0.0000000  -1.0000000   0.0000000), wk =   0.0937500
        k(    8) = (  -0.5000000  -1.0000000   0.0000000), wk =   0.1875000

     Dense  grid:    17573 G-vectors     FFT dimensions: (  40,  40,  40)

     Smooth grid:     6231 G-vectors     FFT dimensions: (  32,  32,  32)

     Estimated max dynamical RAM per process >      64.13 MB

     Initial potential from superposition of free atoms

     starting charge    7.99888, renormalised to    8.00000
     Starting wfcs are    8 randomized atomic wfcs

     total cpu time spent up to now is        1.1 secs

     Self-consistent Calculation

     iteration #  1     ecut=    30.00 Ry     beta= 0.70
     Davidson diagonalization with overlap
     ethr =  1.00E-02,  avg # of iterations =  2.0

     Threshold (ethr) on eigenvalues was too large:
     Diagonalizing with lowered threshold

     Davidson diagonalization with overlap
     ethr =  6.41E-04,  avg # of iterations =  1.5

     total cpu time spent up to now is        1.8 secs

     total energy              =     -22.82395468 Ry
     estimated scf accuracy    <       0.05584929 Ry

     iteration #  2     ecut=    30.00 Ry     beta= 0.70
     Davidson diagonalization with overlap
     ethr =  6.98E-04,  avg # of iterations =  1.0

     total cpu time spent up to now is        2.3 secs

     total energy              =     -22.82562406 Ry
     estimated scf accuracy    <       0.00312069 Ry

     iteration #  3     ecut=    30.00 Ry     beta= 0.70
     Davidson diagonalization with overlap
     ethr =  3.90E-05,  avg # of iterations =  2.4

     total cpu time spent up to now is        2.8 secs

     total energy              =     -22.82625192 Ry
     estimated scf accuracy    <       0.00008901 Ry

     iteration #  4     ecut=    30.00 Ry     beta= 0.70
     Davidson diagonalization with overlap
     ethr =  1.11E-06,  avg # of iterations =  4.0

     total cpu time spent up to now is        3.3 secs

     total energy              =     -22.82632252 Ry
     estimated scf accuracy    <       0.00000579 Ry

     iteration #  5     ecut=    30.00 Ry     beta= 0.70
     Davidson diagonalization with overlap
     ethr =  7.24E-08,  avg # of iterations =  4.1

     total cpu time spent up to now is        3.8 secs

     total energy              =     -22.82632732 Ry
     estimated scf accuracy    <       0.00000049 Ry

     iteration #  6     ecut=    30.00 Ry     beta= 0.70
     Davidson diagonalization with overlap
     ethr =  6.13E-09,  avg # of iterations =  3.2

     total cpu time spent up to now is        4.3 secs

     total energy              =     -22.82632742 Ry
     estimated scf accuracy    <       0.00000021 Ry

     iteration #  7     ecut=    30.00 Ry     beta= 0.70
     Davidson diagonalization with overlap
     ethr =  2.68E-09,  avg # of iterations =  2.2

     total cpu time spent up to now is        4.8 secs

     End of self-consistent calculation

          k = 0.0000 0.0000 0.0000 (   749 PWs)   bands (ev):

    -5.8645   5.8351   5.8351   5.8351

          k =-0.2500 0.2500-0.2500 (   790 PWs)   bands (ev):

    -5.0926   1.9711   5.0967   5.0967

          k = 0.5000-0.5000 0.5000 (   778 PWs)   bands (ev):

    -3.6302  -0.9625   4.6663   4.6663

          k = 0.0000 0.5000 0.0000 (   769 PWs)   bands (ev):

    -4.8190   2.3066   4.0104   4.0104

          k = 0.7500-0.2500 0.7500 (   781 PWs)   bands (ev):

    -3.2469  -0.4500   2.4197   3.7019

          k = 0.5000 0.0000 0.5000 (   784 PWs)   bands (ev):

    -3.8947   0.4193   2.2220   4.5459

          k = 0.0000-1.0000 0.0000 (   790 PWs)   bands (ev):

    -1.8616  -1.8616   3.0764   3.0764

          k =-0.5000-1.0000 0.0000 (   772 PWs)   bands (ev):

    -1.7142  -1.7142   2.1360   2.1360

     highest occupied level (ev):     5.8351

!    total energy              =     -22.82632744 Ry
     estimated scf accuracy    <          5.5E-11 Ry

     The total energy is the sum of the following terms:
     one-electron contribution =       4.86090880 Ry
     hartree contribution      =       1.15977275 Ry
     xc contribution           =     -12.27224578 Ry
     ewald contribution        =     -16.57476322 Ry

     convergence has been achieved in   7 iterations

     Writing output data file ./tmp/silicon.save/

     init_run     :      0.82s CPU      0.91s WALL (       1 calls)
     electrons    :      3.04s CPU      3.74s WALL (       1 calls)

     Called by init_run:
     wfcinit      :      0.25s CPU      0.26s WALL (       1 calls)
     potinit      :      0.06s CPU      0.09s WALL (       1 calls)
     hinit0       :      0.40s CPU      0.40s WALL (       1 calls)

     Called by electrons:
     c_bands      :      1.18s CPU      1.21s WALL (       8 calls)
     sum_band     :      0.83s CPU      1.21s WALL (       8 calls)
     v_of_rho     :      0.47s CPU      0.53s WALL (       8 calls)
     newd         :      0.62s CPU      0.94s WALL (       8 calls)
     mix_rho      :      0.04s CPU      0.05s WALL (       8 calls)

     Called by c_bands:
     init_us_2    :      0.06s CPU      0.06s WALL (     136 calls)
     cegterg      :      0.88s CPU      0.89s WALL (      64 calls)

     Called by *egterg:
     cdiaghg      :      0.01s CPU      0.02s WALL (     220 calls)
     h_psi        :      0.84s CPU      0.85s WALL (     236 calls)
     s_psi        :      0.10s CPU      0.10s WALL (     236 calls)
     g_psi        :      0.01s CPU      0.01s WALL (     164 calls)

     Called by h_psi:
     h_psi:calbec :      0.11s CPU      0.11s WALL (     236 calls)
     vloc_psi     :      0.63s CPU      0.64s WALL (     236 calls)
     add_vuspsi   :      0.09s CPU      0.09s WALL (     236 calls)

     General routines
     calbec       :      0.13s CPU      0.14s WALL (     300 calls)
     fft          :      0.26s CPU      0.26s WALL (     103 calls)
     ffts         :      0.00s CPU      0.01s WALL (      16 calls)
     fftw         :      0.55s CPU      0.57s WALL (    1904 calls)
     interpolate  :      0.02s CPU      0.02s WALL (       8 calls)

     Parallel routines

     PWSCF        :      4.02s CPU      4.83s WALL


   This run was terminated on:   0:50: 4  21Sep2026            

=------------------------------------------------------------------------------=
   JOB DONE.
=------------------------------------------------------------------------------=
