
     Program PWSCF v.6.7MaX starts on 21Sep2026 at  0:45:15 

     This program is part of the open-source Quantum ESPRESSO suite
     for quantum simulation of materials; please cite
         "P. Giannozzi et al., J. Phys.:Condens. Matter 21 395502 (2009);
         "P. Giannozzi et al., J. Phys.:Condens. Matter 29 465901 (2017);
          URL http://www.quantum-espresso.org", 
     in publications or presentations arising from this work. More details at
     http://www.quantum-espresso.org/quote

     Parallel version (MPI), running on     1 processors

     MPI processes distributed on     1 nodes
     Waiting for input...
     Reading input from standard input

     Current dimensions of program PWSCF are:
     Max number of different atomic species (ntypx) = 10
     Max number of k-points (npk) =  40000
     Max angular momentum in pseudopotentials (lmaxx) =  3

     Subspace diagonalization in iterative solution of the eigenvalue problem:
     a serial algorithm will be used


     G-vector sticks info
     --------------------
     sticks:   dense  smooth     PW     G-vecs:    dense   smooth      PW
     Sum         889     439    139                17453     6183    1067



     bravais-lattice index     =            2
     lattice parameter (alat)  =      10.3500  a.u.
     unit-cell volume          =     277.1795 (a.u.)^3
     number of atoms/cell      =            2
     number of atomic types    =            1
     number of electrons       =         8.00
     number of Kohn-Sham states=            4
     kinetic-energy cutoff     =      30.0000  Ry
     charge density cutoff     =     240.0000  Ry
     scf convergence threshold =      1.0E-08
     mixing beta               =       0.7000
     number of iterations used =            8  plain     mixing
     Exchange-correlation= PBE
                           (   1   4   3   4   0   0   0)

     celldm(1)=  10.350000  celldm(2)=   0.000000  celldm(3)=   0.000000
     celldm(4)=   0.000000  celldm(5)=   0.000000  celldm(6)=   0.000000

     crystal axes: (cart. coord. in units of alat)
               a(1) = (  -0.500000   0.000000   0.500000 )  
               a(2) = (   0.000000   0.500000   0.500000 )  
               a(3) = (  -0.500000   0.500000   0.000000 )  

     reciprocal axes: (cart. coord. in units 2 pi/alat)
               b(1) = ( -1.000000 -1.000000  1.000000 )  
               b(2) = (  1.000000  1.000000  1.000000 )  
               b(3) = ( -1.000000  1.000000 -1.000000 )  


     PseudoPot. # 1 for Si read from file:
     /usr/share/espresso/pseudo/Si.pbe-n-rrkjus_psl.1.0.0.UPF
     MD5 check sum: 0b0bb1205258b0d07b9f9672cf965d36
     Pseudo is Ultrasoft + core correction, Zval =  4.0
     Generated using "atomic" code by A. Dal Corso  v.5.1
     Using radial grid of 1141 points,  6 beta functions with: 
                l(1) =   0
                l(2) =   0
                l(3) =   1
                l(4) =   1
                l(5) =   2
                l(6) =   2
     Q(r) pseudized with 0 coefficients 


     atomic species   valence    mass     pseudopotential
        Si             4.00    28.08550     Si( 1.00)

     48 Sym. Ops., with inversion, found (24 have fractional translation)



   Cartesian axes

     site n.     atom                  positions (alat units)
         1           Si  tau(   1) = (   0.0000000   0.0000000   0.0000000  )
         2           Si  tau(   2) = (  -0.2500000   0.2500000   0.2500000  )

     number of k points=     8
                       cart. coord. in units 2pi/alat
        k(    1) = (   0.0000000   0.0000000   0.0000000), wk =   0.0312500
        k(    2) = (  -0.2500000   0.2500000  -0.2500000), wk =   0.2500000
        k(    3) = (   0.5000000  -0.5000000   0.5000000), wk =   0.1250000
        k(    4) = (   0.0000000   0.5000000   0.0000000), wk =   0.1875000
        k(    5) = (   0.7500000  -0.2500000   0.7500000), wk =   0.7500000
        k(    6) = (   0.5000000   0.0000000   0.5000000), wk =   0.3750000
        k(    7) = (   0.0000000  -1.0000000   0.0000000), wk =   0.0937500
        k(    8) = (  -0.5000000  -1.0000000   0.0000000), wk =   0.1875000

     Dense  grid:    17453 G-vectors     FFT dimensions: (  40,  40,  40)

     Smooth grid:     6183 G-vectors     FFT dimensions: (  32,  32,  32)

     Estimated max dynamical RAM per process >      63.72 MB

     Initial potential from superposition of free atoms

     starting charge    7.99888, renormalised to    8.00000
     Starting wfcs are    8 randomized atomic wfcs

     total cpu time spent up to now is        1.0 secs

     Self-consistent Calculation

     iteration #  1     ecut=    30.00 Ry     beta= 0.70
     Davidson diagonalization with overlap
     ethr =  1.00E-02,  avg # of iterations =  2.0

     Threshold (ethr) on eigenvalues was too large:
     Diagonalizing with lowered threshold

     Davidson diagonalization with overlap
     ethr =  6.58E-04,  avg # of iterations =  1.8

     total cpu time spent up to now is        1.8 secs

     total energy              =     -22.82402536 Ry
     estimated scf accuracy    <       0.05733945 Ry

     iteration #  2     ecut=    30.00 Ry     beta= 0.70
     Davidson diagonalization with overlap
     ethr =  7.17E-04,  avg # of iterations =  1.0

     total cpu time spent up to now is        2.2 secs

     total energy              =     -22.82571375 Ry
     estimated scf accuracy    <       0.00314796 Ry

     iteration #  3     ecut=    30.00 Ry     beta= 0.70
     Davidson diagonalization with overlap
     ethr =  3.93E-05,  avg # of iterations =  2.6

     total cpu time spent up to now is        2.7 secs

     total energy              =     -22.82637429 Ry
     estimated scf accuracy    <       0.00009927 Ry

     iteration #  4     ecut=    30.00 Ry     beta= 0.70
     Davidson diagonalization with overlap
     ethr =  1.24E-06,  avg # of iterations =  3.8

     total cpu time spent up to now is        3.3 secs

     total energy              =     -22.82644178 Ry
     estimated scf accuracy    <       0.00000867 Ry

     iteration #  5     ecut=    30.00 Ry     beta= 0.70
     Davidson diagonalization with overlap
     ethr =  1.08E-07,  avg # of iterations =  4.0

     total cpu time spent up to now is        3.8 secs

     total energy              =     -22.82644520 Ry
     estimated scf accuracy    <       0.00000028 Ry

     iteration #  6     ecut=    30.00 Ry     beta= 0.70
     Davidson diagonalization with overlap
     ethr =  3.47E-09,  avg # of iterations =  4.9

     total cpu time spent up to now is        4.3 secs

     total energy              =     -22.82644534 Ry
     estimated scf accuracy    <       0.00000016 Ry

     iteration #  7     ecut=    30.00 Ry     beta= 0.70
     Davidson diagonalization with overlap
     ethr =  1.95E-09,  avg # of iterations =  2.0

     total cpu time spent up to now is        4.8 secs

     End of self-consistent calculation

          k = 0.0000 0.0000 0.0000 (   749 PWs)   bands (ev):

    -5.8143   5.9824   5.9824   5.9824

          k =-0.2500 0.2500-0.2500 (   778 PWs)   bands (ev):

    -5.0322   2.0935   5.2347   5.2347

          k = 0.5000-0.5000 0.5000 (   778 PWs)   bands (ev):

    -3.5444  -0.8807   4.8008   4.8008

          k = 0.0000 0.5000 0.0000 (   769 PWs)   bands (ev):

    -4.7555   2.4574   4.1310   4.1310

          k = 0.7500-0.2500 0.7500 (   768 PWs)   bands (ev):

    -3.1600  -0.3399   2.5199   3.8199

          k = 0.5000 0.0000 0.5000 (   762 PWs)   bands (ev):

    -3.8174   0.5416   2.3144   4.6770

          k = 0.0000-1.0000 0.0000 (   774 PWs)   bands (ev):

    -1.7597  -1.7597   3.1861   3.1861

          k =-0.5000-1.0000 0.0000 (   772 PWs)   bands (ev):

    -1.6061  -1.6061   2.2232   2.2232

     highest occupied level (ev):     5.9824

!    total energy              =     -22.82644536 Ry
     estimated scf accuracy    <          5.2E-09 Ry

     The total energy is the sum of the following terms:
     one-electron contribution =       4.97104206 Ry
     hartree contribution      =       1.14692397 Ry
     xc contribution           =     -12.28957685 Ry
     ewald contribution        =     -16.65483454 Ry

     convergence has been achieved in   7 iterations

     Writing output data file ./tmp/silicon.save/

     init_run     :      0.70s CPU      0.78s WALL (       1 calls)
     electrons    :      2.97s CPU      3.82s WALL (       1 calls)

     Called by init_run:
     wfcinit      :      0.09s CPU      0.09s WALL (       1 calls)
     potinit      :      0.07s CPU      0.09s WALL (       1 calls)
     hinit0       :      0.45s CPU      0.45s WALL (       1 calls)

     Called by electrons:
     c_bands      :      1.26s CPU      1.30s WALL (       8 calls)
     sum_band     :      0.74s CPU      1.19s WALL (       8 calls)
     v_of_rho     :      0.46s CPU      0.52s WALL (       8 calls)
     newd         :      0.57s CPU      0.94s WALL (       8 calls)
     mix_rho      :      0.04s CPU      0.04s WALL (       8 calls)

     Called by c_bands:
     init_us_2    :      0.06s CPU      0.06s WALL (     136 calls)
     cegterg      :      0.93s CPU      0.96s WALL (      64 calls)

     Called by *egterg:
     cdiaghg      :      0.02s CPU      0.02s WALL (     232 calls)
     h_psi        :      0.78s CPU      0.80s WALL (     248 calls)
     s_psi        :      0.09s CPU      0.10s WALL (     248 calls)
     g_psi        :      0.01s CPU      0.01s WALL (     176 calls)

     Called by h_psi:
     h_psi:calbec :      0.09s CPU      0.09s WALL (     248 calls)
     vloc_psi     :      0.59s CPU      0.60s WALL (     248 calls)
     add_vuspsi   :      0.09s CPU      0.10s WALL (     248 calls)

     General routines
     calbec       :      0.11s CPU      0.12s WALL (     312 calls)
     fft          :      0.25s CPU      0.26s WALL (     103 calls)
     ffts         :      0.01s CPU      0.01s WALL (      16 calls)
     fftw         :      0.52s CPU      0.54s WALL (    1918 calls)
     interpolate  :      0.02s CPU      0.02s WALL (       8 calls)

     Parallel routines

     PWSCF        :      3.86s CPU      4.84s WALL


   This run was terminated on:   0:45:20  21Sep2026            

=------------------------------------------------------------------------------=
   JOB DONE.
=------------------------------------------------------------------------------=
